Au Pd                                   
   1.00000000000000     
    11.0025815152626798    0.0000000000000000    0.0000000000000000
     5.5012907576313399    9.5285150994265617    0.0000000000000000
     0.0000000000000000    0.0000000000000000   24.4917850942952882
   Au   Pd
    24    24
Selective dynamics
Direct
  0.2462432261699240  0.7509075012600556  0.6153101092527665   T   T   T
  0.9140451885192871  0.1693342120837705  0.5098526056486856   T   T   T
  0.8333333333333357  0.8333333333333357  0.4083001692812189   F   F   F
  0.0833333333333357  0.3333333333333357  0.4083001692812189   F   F   F
  0.6691119579147040  0.6640625501213324  0.5103122889251229   T   T   T
  0.0833333333333357  0.5833333333333357  0.4083001692812189   F   F   F
  0.9174478434860839  0.6655923145782409  0.5104222672393781   T   T   T
 -0.0022745838629966  0.5002399679433880  0.6135148848500235   T   T   T
  0.9154175486836281  0.9169048279099843  0.5098424848996240   T   T   T
  0.3333333333333357  0.0833333333333357  0.4083001692812189   F   F   F
  0.5833333333333357  0.5833333333333357  0.4083001692812189   F   F   F
  0.4174425434402619  0.6629703682783864  0.5136807536507690   T   T   T
  0.1670452062979944  0.1674277692732303  0.5108580020663663   T   T   T
  0.1720531799732209  0.4153839690132793  0.5098186870190480   T   T   T
  0.2531368917911407  0.2473236789352014  0.6130105122751836   T   T   T
  0.3333333333333357  0.5833333333333357  0.4083001692812189   F   F   F
  0.3333333333333357  0.8333333333333357  0.4083001692812189   F   F   F
  0.1662142503779125  0.9157324654632479  0.5092770745636526   T   T   T
  0.8333333333333357  0.0833333333333357  0.4083001692812189   F   F   F
  0.5017832220388875  0.7508115227318410  0.6180272039279934   T   T   T
  0.4191026182592707  0.9168198032925926  0.5133294548928485   T   T   T
  0.5833333333333357  0.8333333333333357  0.4083001692812189   F   F   F
  0.5016784552836543  0.4950248026697781  0.6129140102938804   T   T   T
  0.8333333333333357  0.3333333333333357  0.4083001692812189   F   F   F
  0.2480917697066305  0.0002004284557616  0.6094231399688227   T   T   T
  0.5019295143471225  0.2475500093175969  0.6023433711961186   T   T   T
  0.3333333333333357  0.3333333333333357  0.4083001692812189   F   F   F
  0.2502506200336865  0.4996009036630277  0.6059562102824794   T   T   T
  0.5833333333333357  0.3333333333333357  0.4083001692812189   F   F   F
  0.5833333333333357  0.0833333333333357  0.4083001692812189   F   F   F
  0.4200575038040683  0.1660625349855710  0.5069645710684347   T   T   T
  0.5018063534524745  0.0004332218018145  0.6072520376451634   T   T   T
 -0.0013085335844028  0.7506919578617741  0.6071674718477309   T   T   T
  0.6652289466192627  0.9196644741541404  0.5084464334905829   T   T   T
  0.0833333333333357  0.8333333333333357  0.4083001692812189   F   F   F
  0.0833333333333357  0.0833333333333357  0.4083001692812189   F   F   F
  0.9171114807833948  0.4166986775968808  0.5096315029616322   T   T   T
 -0.0017402022897281  0.0009102315288772  0.6077255344593011   T   T   T
  0.4202827841948191  0.4142095531374361  0.5069505518879305   T   T   T
  0.6658553655991694  0.4151637173596566  0.5089822723609539   T   T   T
  0.7502830528120639  0.4973649561345369  0.6062833815122796   T   T   T
  0.6636205520349495  0.1683662324817572  0.5063736758456892   T   T   T
  0.7486683745460195  0.0006162353112642  0.6050570100198831   T   T   T
  0.8333333333333357  0.5833333333333357  0.4083001692812189   F   F   F
  0.7499575182575904  0.2477501386552535  0.6053359412757102   T   T   T
  0.1685240067780429  0.6655431071180974  0.5096109582025766   T   T   T
 -0.0018181665232570  0.2491169385914396  0.6077314724532354   T   T   T
  0.7489193859480305  0.7522317885486010  0.6068312915571819   T   T   T
 
  0.00000000E+00  0.00000000E+00  0.00000000E+00
  0.00000000E+00  0.00000000E+00  0.00000000E+00
  0.00000000E+00  0.00000000E+00  0.00000000E+00
  0.00000000E+00  0.00000000E+00  0.00000000E+00
  0.00000000E+00  0.00000000E+00  0.00000000E+00
  0.00000000E+00  0.00000000E+00  0.00000000E+00
  0.00000000E+00  0.00000000E+00  0.00000000E+00
  0.00000000E+00  0.00000000E+00  0.00000000E+00
  0.00000000E+00  0.00000000E+00  0.00000000E+00
  0.00000000E+00  0.00000000E+00  0.00000000E+00
  0.00000000E+00  0.00000000E+00  0.00000000E+00
  0.00000000E+00  0.00000000E+00  0.00000000E+00
  0.00000000E+00  0.00000000E+00  0.00000000E+00
  0.00000000E+00  0.00000000E+00  0.00000000E+00
  0.00000000E+00  0.00000000E+00  0.00000000E+00
  0.00000000E+00  0.00000000E+00  0.00000000E+00
  0.00000000E+00  0.00000000E+00  0.00000000E+00
  0.00000000E+00  0.00000000E+00  0.00000000E+00
  0.00000000E+00  0.00000000E+00  0.00000000E+00
  0.00000000E+00  0.00000000E+00  0.00000000E+00
  0.00000000E+00  0.00000000E+00  0.00000000E+00
  0.00000000E+00  0.00000000E+00  0.00000000E+00
  0.00000000E+00  0.00000000E+00  0.00000000E+00
  0.00000000E+00  0.00000000E+00  0.00000000E+00
  0.00000000E+00  0.00000000E+00  0.00000000E+00
  0.00000000E+00  0.00000000E+00  0.00000000E+00
  0.00000000E+00  0.00000000E+00  0.00000000E+00
  0.00000000E+00  0.00000000E+00  0.00000000E+00
  0.00000000E+00  0.00000000E+00  0.00000000E+00
  0.00000000E+00  0.00000000E+00  0.00000000E+00
  0.00000000E+00  0.00000000E+00  0.00000000E+00
  0.00000000E+00  0.00000000E+00  0.00000000E+00
  0.00000000E+00  0.00000000E+00  0.00000000E+00
  0.00000000E+00  0.00000000E+00  0.00000000E+00
  0.00000000E+00  0.00000000E+00  0.00000000E+00
  0.00000000E+00  0.00000000E+00  0.00000000E+00
  0.00000000E+00  0.00000000E+00  0.00000000E+00
  0.00000000E+00  0.00000000E+00  0.00000000E+00
  0.00000000E+00  0.00000000E+00  0.00000000E+00
  0.00000000E+00  0.00000000E+00  0.00000000E+00
  0.00000000E+00  0.00000000E+00  0.00000000E+00
  0.00000000E+00  0.00000000E+00  0.00000000E+00
  0.00000000E+00  0.00000000E+00  0.00000000E+00
  0.00000000E+00  0.00000000E+00  0.00000000E+00
  0.00000000E+00  0.00000000E+00  0.00000000E+00
  0.00000000E+00  0.00000000E+00  0.00000000E+00
  0.00000000E+00  0.00000000E+00  0.00000000E+00
  0.00000000E+00  0.00000000E+00  0.00000000E+00
