Au  O Pd                                
   1.00000000000000     
    11.0025815152626798    0.0000000000000000    0.0000000000000000
     5.5012907576313399    9.5285150994265617    0.0000000000000000
     0.0000000000000000    0.0000000000000000   26.1917850942952910
   Au   O    Pd
    24     8    24
Selective dynamics
Direct
  0.0833333333333357  0.0833333333333357  0.3817991009012260   F   F   F
  0.6656275048502510  0.4120914161375082  0.4785367789196587   T   T   T
  0.7206998428391189  0.3087834643944447  0.6571917394203778   T   T   T
  0.9166195654263646  0.6644904928832831  0.4707112867028444   T   T   T
  0.6714141581512542  0.1550007095584024  0.5083422531593111   T   T   T
  0.9622420815974113  0.0138585966320586  0.5645320387805541   T   T   T
  0.9109581061997477  0.1676765938234686  0.4763564636928798   T   T   T
  0.8333333333333357  0.0833333333333357  0.3817991009012260   F   F   F
  0.7489981515931556  0.5125993321613880  0.5675288408031265   T   T   T
  0.5833333333333357  0.3333333333333357  0.3817991009012260   F   F   F
  0.5833333333333357  0.8333333333333357  0.3817991009012260   F   F   F
  0.3333333333333357  0.0833333333333357  0.3817991009012260   F   F   F
  0.0023020128917339  0.7415992336107731  0.5599885672095064   T   T   T
  0.5442923754176260  0.3854737626720719  0.5713636464628085   T   T   T
  0.4145277671714809  0.6620081202441335  0.4849749140108017   T   T   T
  0.5833333333333357  0.5833333333333357  0.3817991009012260   F   F   F
  0.3333333333333357  0.5833333333333357  0.3817991009012260   F   F   F
  0.2555506948087231  0.4901416027888666  0.5576388330990834   T   T   T
  0.1649485798230844  0.9123908134430119  0.4753921196208942   T   T   T
  0.2732189368033474  0.7606666012274869  0.5945459355921218   T   T   T
  0.4707298830558561  0.2399116700658546  0.6605008693197978   T   T   T
  0.5833333333333357  0.0833333333333357  0.3817991009012260   F   F   F
  0.4202473046768764  0.1669779911468275  0.4757853288503082   T   T   T
  0.4169130362422757  0.9162048280316719  0.4783370366220021   T   T   T
  0.5880287803937522  0.6233516699677807  0.6180613767187844   T   T   T
  0.5872179419138707  0.2904574207240148  0.7010714414639234   T   T   T
  0.6893117881862580  0.9240436858471824  0.6090652726231197   T   T   T
  0.3666428798257226  0.1624059794781470  0.6246049869477296   T   T   T
  0.0634031255285400  0.8321158741718203  0.6164531540696747   T   T   T
  0.3503332796542571  0.5497154317750129  0.6124118263248093   T   T   T
  0.8524288768102255  0.3573458621186257  0.6245116501943977   T   T   T
  0.0908576587723445  0.0905021291057274  0.6118498093075462   T   T   T
  0.1681032975516725  0.6636331041950764  0.4696373869838420   T   T   T
  0.2507657403432756  0.2500863415911370  0.5621422556394494   T   T   T
  0.1674278515908461  0.4131844167001743  0.4723643743732175   T   T   T
  0.3333333333333357  0.3333333333333357  0.3817991009012260   F   F   F
  0.2488061313660033 -0.0008220876390266  0.5646065376657725   T   T   T
  0.1615588462023726  0.1694869377173587  0.4749538280464332   T   T   T
  0.0833333333333357  0.8333333333333357  0.3817991009012260   F   F   F
  0.5039843548660482  0.0211123576291840  0.5717118129068988   T   T   T
  0.8333333333333357  0.8333333333333357  0.3817991009012260   F   F   F
  0.0018382805629407  0.4981519200543489  0.5597750981528444   T   T   T
  0.0833333333333357  0.5833333333333357  0.3817991009012260   F   F   F
  0.6664566180211309  0.9186272521169205  0.4724925355598549   T   T   T
 -0.0026435726092691  0.2557441797378140  0.5681349432125852   T   T   T
  0.9149165290557965  0.4151787783872767  0.4739296389237504   T   T   T
  0.0833333333333357  0.3333333333333357  0.3817991009012260   F   F   F
  0.7446136929309850  0.7706913860188838  0.5598511774716172   T   T   T
  0.3333333333333357  0.8333333333333357  0.3817991009012260   F   F   F
  0.8333333333333357  0.3333333333333357  0.3817991009012260   F   F   F
  0.4227398175817227  0.4087365091779738  0.4717741512562172   T   T   T
  0.7154570188640568  0.0881329612620808  0.6129131632920268   T   T   T
  0.6678364952979325  0.6635785509316842  0.4763577475808586   T   T   T
  0.4964016973796589  0.7676062720802123  0.5682844298945732   T   T   T
  0.9109822940825234  0.9175593461529696  0.4717368319584866   T   T   T
  0.8333333333333357  0.5833333333333357  0.3817991009012260   F   F   F
 
  0.00000000E+00  0.00000000E+00  0.00000000E+00
  0.00000000E+00  0.00000000E+00  0.00000000E+00
  0.00000000E+00  0.00000000E+00  0.00000000E+00
  0.00000000E+00  0.00000000E+00  0.00000000E+00
  0.00000000E+00  0.00000000E+00  0.00000000E+00
  0.00000000E+00  0.00000000E+00  0.00000000E+00
  0.00000000E+00  0.00000000E+00  0.00000000E+00
  0.00000000E+00  0.00000000E+00  0.00000000E+00
  0.00000000E+00  0.00000000E+00  0.00000000E+00
  0.00000000E+00  0.00000000E+00  0.00000000E+00
  0.00000000E+00  0.00000000E+00  0.00000000E+00
  0.00000000E+00  0.00000000E+00  0.00000000E+00
  0.00000000E+00  0.00000000E+00  0.00000000E+00
  0.00000000E+00  0.00000000E+00  0.00000000E+00
  0.00000000E+00  0.00000000E+00  0.00000000E+00
  0.00000000E+00  0.00000000E+00  0.00000000E+00
  0.00000000E+00  0.00000000E+00  0.00000000E+00
  0.00000000E+00  0.00000000E+00  0.00000000E+00
  0.00000000E+00  0.00000000E+00  0.00000000E+00
  0.00000000E+00  0.00000000E+00  0.00000000E+00
  0.00000000E+00  0.00000000E+00  0.00000000E+00
  0.00000000E+00  0.00000000E+00  0.00000000E+00
  0.00000000E+00  0.00000000E+00  0.00000000E+00
  0.00000000E+00  0.00000000E+00  0.00000000E+00
  0.00000000E+00  0.00000000E+00  0.00000000E+00
  0.00000000E+00  0.00000000E+00  0.00000000E+00
  0.00000000E+00  0.00000000E+00  0.00000000E+00
  0.00000000E+00  0.00000000E+00  0.00000000E+00
  0.00000000E+00  0.00000000E+00  0.00000000E+00
  0.00000000E+00  0.00000000E+00  0.00000000E+00
  0.00000000E+00  0.00000000E+00  0.00000000E+00
  0.00000000E+00  0.00000000E+00  0.00000000E+00
  0.00000000E+00  0.00000000E+00  0.00000000E+00
  0.00000000E+00  0.00000000E+00  0.00000000E+00
  0.00000000E+00  0.00000000E+00  0.00000000E+00
  0.00000000E+00  0.00000000E+00  0.00000000E+00
  0.00000000E+00  0.00000000E+00  0.00000000E+00
  0.00000000E+00  0.00000000E+00  0.00000000E+00
  0.00000000E+00  0.00000000E+00  0.00000000E+00
  0.00000000E+00  0.00000000E+00  0.00000000E+00
  0.00000000E+00  0.00000000E+00  0.00000000E+00
  0.00000000E+00  0.00000000E+00  0.00000000E+00
  0.00000000E+00  0.00000000E+00  0.00000000E+00
  0.00000000E+00  0.00000000E+00  0.00000000E+00
  0.00000000E+00  0.00000000E+00  0.00000000E+00
  0.00000000E+00  0.00000000E+00  0.00000000E+00
  0.00000000E+00  0.00000000E+00  0.00000000E+00
  0.00000000E+00  0.00000000E+00  0.00000000E+00
  0.00000000E+00  0.00000000E+00  0.00000000E+00
  0.00000000E+00  0.00000000E+00  0.00000000E+00
  0.00000000E+00  0.00000000E+00  0.00000000E+00
  0.00000000E+00  0.00000000E+00  0.00000000E+00
  0.00000000E+00  0.00000000E+00  0.00000000E+00
  0.00000000E+00  0.00000000E+00  0.00000000E+00
  0.00000000E+00  0.00000000E+00  0.00000000E+00
  0.00000000E+00  0.00000000E+00  0.00000000E+00
