Au  O Pd                                
   1.00000000000000     
    11.0025815152626798    0.0000000000000000    0.0000000000000000
     5.5012907576313399    9.5285150994265617    0.0000000000000000
     0.0000000000000000    0.0000000000000000   26.1917850942952910
   Au   O    Pd
    24     8    24
Selective dynamics
Direct
  0.0833333333333357  0.0833333333333357  0.3817991009012260   F   F   F
  0.6700160049437096  0.4208691498155029  0.4786787591914953   T   T   T
  0.7430754247206217  0.2296394737914013  0.6189136230581914   T   T   T
  0.9151948698136930  0.6717323089591821  0.4712600783147656   T   T   T
  0.6652280468000031  0.1743373911163777  0.4934693563042917   T   T   T
  0.9717324804836320  0.0263470638396416  0.5647921048837669   T   T   T
  0.9144005214867613  0.1746066118285783  0.4766481531605396   T   T   T
  0.8333333333333357  0.0833333333333357  0.3817991009012260   F   F   F
  0.7632896374056933  0.5297725912160534  0.6010566580195008   T   T   T
  0.5833333333333357  0.3333333333333357  0.3817991009012260   F   F   F
  0.5833333333333357  0.8333333333333357  0.3817991009012260   F   F   F
  0.3333333333333357  0.0833333333333357  0.3817991009012260   F   F   F
  0.9902415970821696  0.7520542052688652  0.5657427380069374   T   T   T
  0.5172216525084843  0.4730953043517604  0.5640137247222019   T   T   T
  0.4134050355749851  0.6692443461553427  0.4782166171066677   T   T   T
  0.5833333333333357  0.5833333333333357  0.3817991009012260   F   F   F
  0.3333333333333357  0.5833333333333357  0.3817991009012260   F   F   F
  0.2443387123912110  0.5043236914403062  0.5576786174503150   T   T   T
  0.1646538552028671  0.9186367016291578  0.4763257149512389   T   T   T
  0.2616443275067747  0.7752056846994466  0.6009105436357420   T   T   T
  0.4952368217615156  0.2249282111412763  0.6290710843192833   T   T   T
  0.5833333333333357  0.0833333333333357  0.3817991009012260   F   F   F
  0.4172618894788250  0.1718618211826956  0.4782001296108150   T   T   T
  0.4167609894854356  0.9191026692919052  0.4796276358818524   T   T   T
  0.5664670043933739  0.6385288665112718  0.6294123024844525   T   T   T
  0.5852114689734348  0.3105355545560772  0.6691001865237499   T   T   T
  0.6649530894045806 -0.1025566138906901  0.6138836754214149   T   T   T
  0.3055468287206464  0.2519890667065987  0.6353080639703713   T   T   T
  0.0518389272011399  0.8522926332267924  0.6197049699981818   T   T   T
  0.3328672170687292  0.5649135435291656  0.6157087454509851   T   T   T
  0.8592681671193626  0.3310904473218228  0.6313060384793828   T   T   T
  0.1186060244958591  0.1068603778675318  0.6195580874392290   T   T   T
  0.1632356978453738  0.6722642304363333  0.4707628999156310   T   T   T
  0.2468754066029346  0.2581723291037478  0.5655538354858778   T   T   T
  0.1669498901230381  0.4196190480479617  0.4722040551653208   T   T   T
  0.3333333333333357  0.3333333333333357  0.3817991009012260   F   F   F
  0.2516729359672475  0.0031275997110280  0.5671764617678371   T   T   T
  0.1636147988207107  0.1752216715806094  0.4776452323135512   T   T   T
  0.0833333333333357  0.8333333333333357  0.3817991009012260   F   F   F
  0.4884039685257823  0.0134599965316040  0.5715694015923894   T   T   T
  0.8333333333333357  0.8333333333333357  0.3817991009012260   F   F   F
 -0.0062337274871794  0.5042475155213555  0.5589952959716202   T   T   T
  0.0833333333333357  0.5833333333333357  0.3817991009012260   F   F   F
  0.6654287875563383  0.9244709388775910  0.4731690865257166   T   T   T
 -0.0013582021721823  0.2612896200395350  0.5730528537238200   T   T   T
  0.9163257895509819  0.4209426379301719  0.4737774396409423   T   T   T
  0.0833333333333357  0.3333333333333357  0.3817991009012260   F   F   F
  0.7380227941476628  0.7561348159620489  0.5587746382694654   T   T   T
  0.3333333333333357  0.8333333333333357  0.3817991009012260   F   F   F
  0.8333333333333357  0.3333333333333357  0.3817991009012260   F   F   F
  0.4174280490855966  0.4175779768179892  0.4716748002294734   T   T   T
  0.7377509561135864  0.0041238917232694  0.5764916358908390   T   T   T
  0.6684045054537530  0.6685158719883219  0.4740205477389024   T   T   T
  0.4952021743903610  0.7496153041325099  0.5677555543665919   T   T   T
  0.9116932915268663  0.9232715896962267  0.4734951676854759   T   T   T
  0.8333333333333357  0.5833333333333357  0.3817991009012260   F   F   F
 
  0.00000000E+00  0.00000000E+00  0.00000000E+00
  0.00000000E+00  0.00000000E+00  0.00000000E+00
  0.00000000E+00  0.00000000E+00  0.00000000E+00
  0.00000000E+00  0.00000000E+00  0.00000000E+00
  0.00000000E+00  0.00000000E+00  0.00000000E+00
  0.00000000E+00  0.00000000E+00  0.00000000E+00
  0.00000000E+00  0.00000000E+00  0.00000000E+00
  0.00000000E+00  0.00000000E+00  0.00000000E+00
  0.00000000E+00  0.00000000E+00  0.00000000E+00
  0.00000000E+00  0.00000000E+00  0.00000000E+00
  0.00000000E+00  0.00000000E+00  0.00000000E+00
  0.00000000E+00  0.00000000E+00  0.00000000E+00
  0.00000000E+00  0.00000000E+00  0.00000000E+00
  0.00000000E+00  0.00000000E+00  0.00000000E+00
  0.00000000E+00  0.00000000E+00  0.00000000E+00
  0.00000000E+00  0.00000000E+00  0.00000000E+00
  0.00000000E+00  0.00000000E+00  0.00000000E+00
  0.00000000E+00  0.00000000E+00  0.00000000E+00
  0.00000000E+00  0.00000000E+00  0.00000000E+00
  0.00000000E+00  0.00000000E+00  0.00000000E+00
  0.00000000E+00  0.00000000E+00  0.00000000E+00
  0.00000000E+00  0.00000000E+00  0.00000000E+00
  0.00000000E+00  0.00000000E+00  0.00000000E+00
  0.00000000E+00  0.00000000E+00  0.00000000E+00
  0.00000000E+00  0.00000000E+00  0.00000000E+00
  0.00000000E+00  0.00000000E+00  0.00000000E+00
  0.00000000E+00  0.00000000E+00  0.00000000E+00
  0.00000000E+00  0.00000000E+00  0.00000000E+00
  0.00000000E+00  0.00000000E+00  0.00000000E+00
  0.00000000E+00  0.00000000E+00  0.00000000E+00
  0.00000000E+00  0.00000000E+00  0.00000000E+00
  0.00000000E+00  0.00000000E+00  0.00000000E+00
  0.00000000E+00  0.00000000E+00  0.00000000E+00
  0.00000000E+00  0.00000000E+00  0.00000000E+00
  0.00000000E+00  0.00000000E+00  0.00000000E+00
  0.00000000E+00  0.00000000E+00  0.00000000E+00
  0.00000000E+00  0.00000000E+00  0.00000000E+00
  0.00000000E+00  0.00000000E+00  0.00000000E+00
  0.00000000E+00  0.00000000E+00  0.00000000E+00
  0.00000000E+00  0.00000000E+00  0.00000000E+00
  0.00000000E+00  0.00000000E+00  0.00000000E+00
  0.00000000E+00  0.00000000E+00  0.00000000E+00
  0.00000000E+00  0.00000000E+00  0.00000000E+00
  0.00000000E+00  0.00000000E+00  0.00000000E+00
  0.00000000E+00  0.00000000E+00  0.00000000E+00
  0.00000000E+00  0.00000000E+00  0.00000000E+00
  0.00000000E+00  0.00000000E+00  0.00000000E+00
  0.00000000E+00  0.00000000E+00  0.00000000E+00
  0.00000000E+00  0.00000000E+00  0.00000000E+00
  0.00000000E+00  0.00000000E+00  0.00000000E+00
  0.00000000E+00  0.00000000E+00  0.00000000E+00
  0.00000000E+00  0.00000000E+00  0.00000000E+00
  0.00000000E+00  0.00000000E+00  0.00000000E+00
  0.00000000E+00  0.00000000E+00  0.00000000E+00
  0.00000000E+00  0.00000000E+00  0.00000000E+00
  0.00000000E+00  0.00000000E+00  0.00000000E+00
