Au  O Pd                                
   1.00000000000000     
    11.0025815152626798    0.0000000000000000    0.0000000000000000
     5.5012907576313399    9.5285150994265617    0.0000000000000000
     0.0000000000000000    0.0000000000000000   26.1917850942952910
   Au   O    Pd
    24     8    24
Selective dynamics
Direct
  0.0833333333333357  0.0833333333333357  0.3817991009012260   F   F   F
  0.3333333333333357  0.8333333333333357  0.3817991009012260   F   F   F
  0.0833333333333357  0.8333333333333357  0.3817991009012260   F   F   F
  0.6689537993285607  0.9109818440475439  0.4826580183804614   T   T   T
  0.8333333333333357  0.8333333333333357  0.3817991009012260   F   F   F
  0.0833333333333357  0.3333333333333357  0.3817991009012260   F   F   F
  0.6720705548723013  0.6613595370908379  0.5275341818854052   T   T   T
  0.8333333333333357  0.5833333333333357  0.3817991009012260   F   F   F
  0.0833333333333357  0.5833333333333357  0.3817991009012260   F   F   F
  0.9091654856965116  0.6662433671526090  0.4790680397127561   T   T   T
  0.6713141805613333  0.4197225003169418  0.4810916562106307   T   T   T
  0.8333333333333357  0.0833333333333357  0.3817991009012260   F   F   F
  0.8333333333333357  0.3333333333333357  0.3817991009012260   F   F   F
  0.3333333333333357  0.0833333333333357  0.3817991009012260   F   F   F
  0.1661210490787550  0.1631015293832373  0.4795860973104053   T   T   T
  0.4247484464235645  0.9065887068613584  0.4838063030294335   T   T   T
  0.5833333333333357  0.8333333333333357  0.3817991009012260   F   F   F
  0.3333333333333357  0.3333333333333357  0.3817991009012260   F   F   F
  0.1665217145905962  0.4168950011613319  0.4794702499815887   T   T   T
  0.4227799311776688  0.6650338736753317  0.4793552842343107   T   T   T
  0.3333333333333357  0.5833333333333357  0.3817991009012260   F   F   F
  0.5833333333333357  0.5833333333333357  0.3817991009012260   F   F   F
  0.5833333333333357  0.3333333333333357  0.3817991009012260   F   F   F
  0.5833333333333357  0.0833333333333357  0.3817991009012260   F   F   F
  0.2951848571202763  0.8357737779923128  0.6196763584788753   T   T   T
  0.0850434757925227  0.0898836531693237  0.6094646641050480   T   T   T
  0.8644757539446721  0.8363926870771974  0.6178801797765302   T   T   T
  0.8974909628372592  0.5559226496252895  0.6334498682560593   T   T   T
  0.5429173619571739  0.5548594958414361  0.6336693159782917   T   T   T
  0.8422441204404153  0.3144601815479935  0.6169638498396867   T   T   T
  0.5426880933014628  0.9109224959352754  0.6380995400313931   T   T   T
  0.8254099715767413  0.0877788780521951  0.6094266778957300   T   T   T
  0.1672988001362554  0.6662243423480848  0.4781920194652788   T   T   T
  0.4202110642686841  0.4157771184166756  0.4780622977882784   T   T   T
  0.4972552562565194  0.2502705197809842  0.5637329339246341   T   T   T
  0.2522072085910258  0.4967476110326100  0.5672453041181237   T   T   T
  0.4985871399972466  0.0053957794950895  0.5717240127582668   T   T   T
  0.4201025115907640  0.1620761957525315  0.4780445717282035   T   T   T
  0.7395035060269809  0.7537644086728713  0.6273610812013219   T   T   T
  0.2531805155697425  0.2486081546374040  0.5665979826567424   T   T   T
  0.2500802730107313  0.7433636244891985  0.5651919903413669   T   T   T
  0.2611554430742856 -0.0054241905219699  0.5715803808127398   T   T   T
  0.1672571978520663  0.9138790350512349  0.4763759212319928   T   T   T
  0.0056219548924367  0.7430888968278008  0.5644478832425823   T   T   T
  0.6686078827358706  0.1651343831176655  0.4774651111825572   T   T   T
  0.7448819090767723 -0.0037255275582892  0.5691305294055699   T   T   T
  0.9179272432327688  0.9157353613020306  0.4756826483090717   T   T   T
  0.0031128788692960  0.5013699964120859  0.5693300540515341   T   T   T
  0.7384666808291043  0.2594683591711967  0.5675466362613391   T   T   T
 -0.0016562532681585  0.2621867554032815  0.5670838223367851   T   T   T
  0.9119551603355984  0.4199733979228826  0.4802559300587063   T   T   T
  0.7387049970938967  0.5185765645365294  0.6256662937625257   T   T   T
  0.0020284288807334 -0.0038152487297646  0.5654695627849532   T   T   T
  0.9161628816818832  0.1654234571364714  0.4743164869490457   T   T   T
  0.4947454336258634  0.5002499572018203  0.5685518741877931   T   T   T
  0.5030976088432203  0.7528451099657105  0.6280600884027778   T   T   T
 
  0.00000000E+00  0.00000000E+00  0.00000000E+00
  0.00000000E+00  0.00000000E+00  0.00000000E+00
  0.00000000E+00  0.00000000E+00  0.00000000E+00
  0.00000000E+00  0.00000000E+00  0.00000000E+00
  0.00000000E+00  0.00000000E+00  0.00000000E+00
  0.00000000E+00  0.00000000E+00  0.00000000E+00
  0.00000000E+00  0.00000000E+00  0.00000000E+00
  0.00000000E+00  0.00000000E+00  0.00000000E+00
  0.00000000E+00  0.00000000E+00  0.00000000E+00
  0.00000000E+00  0.00000000E+00  0.00000000E+00
  0.00000000E+00  0.00000000E+00  0.00000000E+00
  0.00000000E+00  0.00000000E+00  0.00000000E+00
  0.00000000E+00  0.00000000E+00  0.00000000E+00
  0.00000000E+00  0.00000000E+00  0.00000000E+00
  0.00000000E+00  0.00000000E+00  0.00000000E+00
  0.00000000E+00  0.00000000E+00  0.00000000E+00
  0.00000000E+00  0.00000000E+00  0.00000000E+00
  0.00000000E+00  0.00000000E+00  0.00000000E+00
  0.00000000E+00  0.00000000E+00  0.00000000E+00
  0.00000000E+00  0.00000000E+00  0.00000000E+00
  0.00000000E+00  0.00000000E+00  0.00000000E+00
  0.00000000E+00  0.00000000E+00  0.00000000E+00
  0.00000000E+00  0.00000000E+00  0.00000000E+00
  0.00000000E+00  0.00000000E+00  0.00000000E+00
  0.00000000E+00  0.00000000E+00  0.00000000E+00
  0.00000000E+00  0.00000000E+00  0.00000000E+00
  0.00000000E+00  0.00000000E+00  0.00000000E+00
  0.00000000E+00  0.00000000E+00  0.00000000E+00
  0.00000000E+00  0.00000000E+00  0.00000000E+00
  0.00000000E+00  0.00000000E+00  0.00000000E+00
  0.00000000E+00  0.00000000E+00  0.00000000E+00
  0.00000000E+00  0.00000000E+00  0.00000000E+00
  0.00000000E+00  0.00000000E+00  0.00000000E+00
  0.00000000E+00  0.00000000E+00  0.00000000E+00
  0.00000000E+00  0.00000000E+00  0.00000000E+00
  0.00000000E+00  0.00000000E+00  0.00000000E+00
  0.00000000E+00  0.00000000E+00  0.00000000E+00
  0.00000000E+00  0.00000000E+00  0.00000000E+00
  0.00000000E+00  0.00000000E+00  0.00000000E+00
  0.00000000E+00  0.00000000E+00  0.00000000E+00
  0.00000000E+00  0.00000000E+00  0.00000000E+00
  0.00000000E+00  0.00000000E+00  0.00000000E+00
  0.00000000E+00  0.00000000E+00  0.00000000E+00
  0.00000000E+00  0.00000000E+00  0.00000000E+00
  0.00000000E+00  0.00000000E+00  0.00000000E+00
  0.00000000E+00  0.00000000E+00  0.00000000E+00
  0.00000000E+00  0.00000000E+00  0.00000000E+00
  0.00000000E+00  0.00000000E+00  0.00000000E+00
  0.00000000E+00  0.00000000E+00  0.00000000E+00
  0.00000000E+00  0.00000000E+00  0.00000000E+00
  0.00000000E+00  0.00000000E+00  0.00000000E+00
  0.00000000E+00  0.00000000E+00  0.00000000E+00
  0.00000000E+00  0.00000000E+00  0.00000000E+00
  0.00000000E+00  0.00000000E+00  0.00000000E+00
  0.00000000E+00  0.00000000E+00  0.00000000E+00
  0.00000000E+00  0.00000000E+00  0.00000000E+00
