Au Pd                                   
   1.00000000000000     
    11.0025815152626798    0.0000000000000000    0.0000000000000000
     5.5012907576313399    9.5285150994265617    0.0000000000000000
     0.0000000000000000    0.0000000000000000   24.4917850942952882
   Au   Pd
    24    24
Direct
  0.3322207261790261  0.0843080271242406  0.3941757341143340
  0.1642780153717020  0.9183412885892885  0.4997590077320796
  0.3339575071681421  0.8314173774550324  0.3924517615407028
  0.4171332934161615  0.9186664673595469  0.4990190891481182
  0.1641289656885659  0.6667348770351302  0.4997074441955889
  0.4982944888662329  0.7536825349373577  0.6073289757319514
  0.2522185399401567  0.2508111692168812  0.6026089257404317
  0.8338308673719039  0.0828764515439819  0.3994239765501331
  0.3312145398582227  0.3341985503804407  0.3982136223674122
  0.4184802312500980  0.4144023019986136  0.5012153026024991
  0.1648884764282839  0.1699788431006264  0.5006841248014522
  0.6679130913343860  0.9187710717386238  0.4983922299166885
  0.5848991682021746  0.8308415736464337  0.3920745728351948
  0.8352647555381365  0.3344571539473216  0.4025174489899782
  0.0848254676412118  0.8308870160377481  0.3953529923381960
  0.4182998051791308  0.6657904690113821  0.5014734350594500
  0.7478225392746524  0.2480743147907749  0.6014892267714586
  0.5828812227410095  0.3345058004935295  0.3993076539011518
  0.0008252488324152  0.2501876969311140  0.6042420757333685
  0.6698939245337735  0.6651726850495544  0.5009111357211381
  0.7506880624088186  0.5020757829665053  0.6051280046883429
 -0.0001729960400044 -0.0034745342313244  0.6019394951532169
  0.8345098626206853  0.8298684383155805  0.3960564647715836
  0.4965466674035361  0.5005716195481834  0.6068148108494165
  0.0839514527071440  0.0831468981006384  0.4031840497371940
  0.6680661672137155  0.1670392393761768  0.4994705962555885
  0.6691343506676958  0.4153075032543304  0.5024405979121958
  0.8348899192201896  0.5817725567573567  0.4037468369482186
  0.7486628643410383 -0.0019511080639215  0.5953217388500935
  0.5836248458325142  0.5833057342851590  0.4047917146119676
  0.2489554111466832  0.7503379454349415  0.5981290334431589
  0.5011340094242583  0.0002002617345747  0.5962338627537009
  0.9142183926843337  0.1679787122690292  0.5016835975663060
  0.0829917575386775  0.3340155276853911  0.4045952628847536
  0.9167677672527889  0.4173004043460423  0.5021073152021519
  0.0827087676805974  0.5812423738650608  0.4032205964399067
  0.9179928509454351  0.6659061107580109  0.4996795404070217
 -0.0005024496536177  0.5020391618698289  0.5969712946113861
  0.4995856961557913  0.2489651392569365  0.5966563528373885
  0.9156732601801421  0.9177135054629380  0.4985820693512187
  0.2509923955583758 -0.0003486272355193  0.5979369851897008
  0.1654770345025393  0.4170367128466499  0.5009819510624109
  0.3334311830103606  0.5827251453631067  0.4027276688155928
  0.2475846652319991  0.5017424956906923  0.5977003250877656
  0.5832267035552471  0.0827920705083203  0.4018782814347180
  0.4159933721919146  0.1689500757422285  0.4990823962928637
 -0.0004472849773853  0.7483276399254176  0.5958396298817829
  0.7510443963811395  0.7513075437800433  0.5967507911690250
 
  0.00000000E+00  0.00000000E+00  0.00000000E+00
  0.00000000E+00  0.00000000E+00  0.00000000E+00
  0.00000000E+00  0.00000000E+00  0.00000000E+00
  0.00000000E+00  0.00000000E+00  0.00000000E+00
  0.00000000E+00  0.00000000E+00  0.00000000E+00
  0.00000000E+00  0.00000000E+00  0.00000000E+00
  0.00000000E+00  0.00000000E+00  0.00000000E+00
  0.00000000E+00  0.00000000E+00  0.00000000E+00
  0.00000000E+00  0.00000000E+00  0.00000000E+00
  0.00000000E+00  0.00000000E+00  0.00000000E+00
  0.00000000E+00  0.00000000E+00  0.00000000E+00
  0.00000000E+00  0.00000000E+00  0.00000000E+00
  0.00000000E+00  0.00000000E+00  0.00000000E+00
  0.00000000E+00  0.00000000E+00  0.00000000E+00
  0.00000000E+00  0.00000000E+00  0.00000000E+00
  0.00000000E+00  0.00000000E+00  0.00000000E+00
  0.00000000E+00  0.00000000E+00  0.00000000E+00
  0.00000000E+00  0.00000000E+00  0.00000000E+00
  0.00000000E+00  0.00000000E+00  0.00000000E+00
  0.00000000E+00  0.00000000E+00  0.00000000E+00
  0.00000000E+00  0.00000000E+00  0.00000000E+00
  0.00000000E+00  0.00000000E+00  0.00000000E+00
  0.00000000E+00  0.00000000E+00  0.00000000E+00
  0.00000000E+00  0.00000000E+00  0.00000000E+00
  0.00000000E+00  0.00000000E+00  0.00000000E+00
  0.00000000E+00  0.00000000E+00  0.00000000E+00
  0.00000000E+00  0.00000000E+00  0.00000000E+00
  0.00000000E+00  0.00000000E+00  0.00000000E+00
  0.00000000E+00  0.00000000E+00  0.00000000E+00
  0.00000000E+00  0.00000000E+00  0.00000000E+00
  0.00000000E+00  0.00000000E+00  0.00000000E+00
  0.00000000E+00  0.00000000E+00  0.00000000E+00
  0.00000000E+00  0.00000000E+00  0.00000000E+00
  0.00000000E+00  0.00000000E+00  0.00000000E+00
  0.00000000E+00  0.00000000E+00  0.00000000E+00
  0.00000000E+00  0.00000000E+00  0.00000000E+00
  0.00000000E+00  0.00000000E+00  0.00000000E+00
  0.00000000E+00  0.00000000E+00  0.00000000E+00
  0.00000000E+00  0.00000000E+00  0.00000000E+00
  0.00000000E+00  0.00000000E+00  0.00000000E+00
  0.00000000E+00  0.00000000E+00  0.00000000E+00
  0.00000000E+00  0.00000000E+00  0.00000000E+00
  0.00000000E+00  0.00000000E+00  0.00000000E+00
  0.00000000E+00  0.00000000E+00  0.00000000E+00
  0.00000000E+00  0.00000000E+00  0.00000000E+00
  0.00000000E+00  0.00000000E+00  0.00000000E+00
  0.00000000E+00  0.00000000E+00  0.00000000E+00
  0.00000000E+00  0.00000000E+00  0.00000000E+00
