Au  O Pd                                
   1.00000000000000     
    11.0025815152626798    0.0000000000000000    0.0000000000000000
     5.5012907576313399    9.5285150994265617    0.0000000000000000
     0.0000000000000000    0.0000000000000000   26.1917850942952910
   Au   O    Pd
    24     8    24
Selective dynamics
Direct
  0.0833333333333357  0.0833333333333357  0.3817991009012260   F   F   F
  0.2687069326767692  0.5089626901060985  0.5682576188541233   T   T   T
  0.4136499472720775  0.6654543199440119  0.4739180707771398   T   T   T
  0.8333333333333357  0.8333333333333357  0.3817991009012260   F   F   F
 -0.0039538131685862  0.0110902956754554  0.5753962300827867   T   T   T
  0.6674560727927387  0.4119005285364273  0.4753329207695787   T   T   T
  0.8333333333333357  0.3333333333333357  0.3817991009012260   F   F   F
  0.7546214787753908 -0.0032877645296107  0.5648886141179272   T   T   T
  0.8333333333333357  0.0833333333333357  0.3817991009012260   F   F   F
  0.5202242375663921  0.5112151616032536  0.6091036378024650   T   T   T
  0.9163174492454839  0.6632579681708597  0.4806796176590223   T   T   T
  0.5833333333333357  0.5833333333333357  0.3817991009012260   F   F   F
 -0.0092239960906275  0.4667594712649043  0.6197016803466152   T   T   T
  0.1661751018371001  0.6657283753921176  0.4779488438826404   T   T   T
  0.3333333333333357  0.0833333333333357  0.3817991009012260   F   F   F
  0.4919103291222566  0.0044350863295584  0.5659403874064840   T   T   T
  0.2443365564719749  0.0107621208888570  0.5786384992526580   T   T   T
  0.4186734015860816  0.1661280078846245  0.4783673081498785   T   T   T
  0.3333333333333357  0.3333333333333357  0.3817991009012260   F   F   F
  0.1663860757129879  0.4159522158879514  0.4768028380039533   T   T   T
  0.2309977406645640  0.2651293282760483  0.5736133523170458   T   T   T
  0.7493050367539269  0.7478523684394598  0.5677176142227941   T   T   T
  0.1679485813096733  0.9166002776994336  0.4826743705282251   T   T   T
  0.0833333333333357  0.8333333333333357  0.3817991009012260   F   F   F
  0.0461929634122250  0.8511719694203765  0.6328506624030408   T   T   T
  0.3476903737578180  0.5813724775120918  0.6552498144995387   T   T   T
  0.0794677159335479  0.5922766991711178  0.6279561148211281   T   T   T
  0.3090686705734364  0.3156513186375575  0.6351152422168680   T   T   T
  0.3941864329158083  0.8310707311749241  0.6289734840612859   T   T   T
  0.7731692184468743  0.5825109461428094  0.6240364225544563   T   T   T
  0.6081588105019977  0.0504339953057585  0.6269726005080616   T   T   T
  0.6592739873271294  0.2892733750867458  0.6287879323116679   T   T   T
  0.5833333333333357  0.8333333333333357  0.3817991009012260   F   F   F
  0.4211456617595404  0.4122501086537646  0.4822789239253634   T   T   T
  0.5001274817628619  0.2585103413255330  0.6179431860887821   T   T   T
  0.0008746665396698  0.7502725565635517  0.5774278012271582   T   T   T
  0.9168203003677888  0.9145829111488041  0.4823949949514120   T   T   T
  0.2508814629778578  0.7731442380340391  0.6336976009866212   T   T   T
  0.3333333333333357  0.5833333333333357  0.3817991009012260   F   F   F
  0.0833333333333357  0.5833333333333357  0.3817991009012260   F   F   F
  0.5833333333333357  0.3333333333333357  0.3817991009012260   F   F   F
  0.4170565872960978  0.9149784415754575  0.4749262820179586   T   T   T
  0.4921528307632157  0.7456148651982235  0.5628543461299891   T   T   T
  0.6684666151516124  0.1621159225519672  0.4717298086135332   T   T   T
 -0.0110538427176719  0.2618244733601732  0.5623265741497276   T   T   T
  0.9167464152084840  0.4129925205328571  0.4718169213143381   T   T   T
  0.0833333333333357  0.3333333333333357  0.3817991009012260   F   F   F
  0.7477858002931670  0.2482627482893355  0.5626838954870000   T   T   T
  0.8333333333333357  0.5833333333333357  0.3817991009012260   F   F   F
  0.6645142874235592  0.6653667691393148  0.4741127628432149   T   T   T
  0.7415957358082249  0.4973141829097120  0.5605513224796123   T   T   T
  0.9185041408098088  0.1616098651201404  0.4771014369022979   T   T   T
  0.6677423884022605  0.9134751428278359  0.4739278946165173   T   T   T
  0.3333333333333357  0.8333333333333357  0.3817991009012260   F   F   F
  0.5833333333333357  0.0833333333333357  0.3817991009012260   F   F   F
  0.1673013609285329  0.1661457463572994  0.4791173149000744   T   T   T
 
  0.00000000E+00  0.00000000E+00  0.00000000E+00
  0.00000000E+00  0.00000000E+00  0.00000000E+00
  0.00000000E+00  0.00000000E+00  0.00000000E+00
  0.00000000E+00  0.00000000E+00  0.00000000E+00
  0.00000000E+00  0.00000000E+00  0.00000000E+00
  0.00000000E+00  0.00000000E+00  0.00000000E+00
  0.00000000E+00  0.00000000E+00  0.00000000E+00
  0.00000000E+00  0.00000000E+00  0.00000000E+00
  0.00000000E+00  0.00000000E+00  0.00000000E+00
  0.00000000E+00  0.00000000E+00  0.00000000E+00
  0.00000000E+00  0.00000000E+00  0.00000000E+00
  0.00000000E+00  0.00000000E+00  0.00000000E+00
  0.00000000E+00  0.00000000E+00  0.00000000E+00
  0.00000000E+00  0.00000000E+00  0.00000000E+00
  0.00000000E+00  0.00000000E+00  0.00000000E+00
  0.00000000E+00  0.00000000E+00  0.00000000E+00
  0.00000000E+00  0.00000000E+00  0.00000000E+00
  0.00000000E+00  0.00000000E+00  0.00000000E+00
  0.00000000E+00  0.00000000E+00  0.00000000E+00
  0.00000000E+00  0.00000000E+00  0.00000000E+00
  0.00000000E+00  0.00000000E+00  0.00000000E+00
  0.00000000E+00  0.00000000E+00  0.00000000E+00
  0.00000000E+00  0.00000000E+00  0.00000000E+00
  0.00000000E+00  0.00000000E+00  0.00000000E+00
  0.00000000E+00  0.00000000E+00  0.00000000E+00
  0.00000000E+00  0.00000000E+00  0.00000000E+00
  0.00000000E+00  0.00000000E+00  0.00000000E+00
  0.00000000E+00  0.00000000E+00  0.00000000E+00
  0.00000000E+00  0.00000000E+00  0.00000000E+00
  0.00000000E+00  0.00000000E+00  0.00000000E+00
  0.00000000E+00  0.00000000E+00  0.00000000E+00
  0.00000000E+00  0.00000000E+00  0.00000000E+00
  0.00000000E+00  0.00000000E+00  0.00000000E+00
  0.00000000E+00  0.00000000E+00  0.00000000E+00
  0.00000000E+00  0.00000000E+00  0.00000000E+00
  0.00000000E+00  0.00000000E+00  0.00000000E+00
  0.00000000E+00  0.00000000E+00  0.00000000E+00
  0.00000000E+00  0.00000000E+00  0.00000000E+00
  0.00000000E+00  0.00000000E+00  0.00000000E+00
  0.00000000E+00  0.00000000E+00  0.00000000E+00
  0.00000000E+00  0.00000000E+00  0.00000000E+00
  0.00000000E+00  0.00000000E+00  0.00000000E+00
  0.00000000E+00  0.00000000E+00  0.00000000E+00
  0.00000000E+00  0.00000000E+00  0.00000000E+00
  0.00000000E+00  0.00000000E+00  0.00000000E+00
  0.00000000E+00  0.00000000E+00  0.00000000E+00
  0.00000000E+00  0.00000000E+00  0.00000000E+00
  0.00000000E+00  0.00000000E+00  0.00000000E+00
  0.00000000E+00  0.00000000E+00  0.00000000E+00
  0.00000000E+00  0.00000000E+00  0.00000000E+00
  0.00000000E+00  0.00000000E+00  0.00000000E+00
  0.00000000E+00  0.00000000E+00  0.00000000E+00
  0.00000000E+00  0.00000000E+00  0.00000000E+00
  0.00000000E+00  0.00000000E+00  0.00000000E+00
  0.00000000E+00  0.00000000E+00  0.00000000E+00
  0.00000000E+00  0.00000000E+00  0.00000000E+00
