Au  O Pd                                
   1.00000000000000     
    11.0025815152626798    0.0000000000000000    0.0000000000000000
     5.5012907576313399    9.5285150994265617    0.0000000000000000
     0.0000000000000000    0.0000000000000000   26.1917850942952910
   Au   O    Pd
    24     8    24
Selective dynamics
Direct
  0.0833333333333357  0.0833333333333357  0.3817991009012260   F   F   F
  0.0833333333333357  0.8333333333333357  0.3817991009012260   F   F   F
  0.9184304471395601  0.9182883533706061  0.4808536051356513   T   T   T
  0.8333333333333357  0.5833333333333357  0.3817991009012260   F   F   F
  0.8333333333333357  0.8333333333333357  0.3817991009012260   F   F   F
  0.0833333333333357  0.5833333333333357  0.3817991009012260   F   F   F
  0.9158325233814709  0.4163433785134920  0.4764379454777116   T   T   T
  0.0833333333333357  0.3333333333333357  0.3817991009012260   F   F   F
  0.6669257801802544  0.9160223736987685  0.4801549436193651   T   T   T
  0.3333333333333357  0.8333333333333357  0.3817991009012260   F   F   F
  0.3333333333333357  0.0833333333333357  0.3817991009012260   F   F   F
  0.1691838093398308  0.4157761473044539  0.4826793213441560   T   T   T
  0.3333333333333357  0.3333333333333357  0.3817991009012260   F   F   F
  0.1687691881286990  0.6657259330297446  0.4812776952646933   T   T   T
  0.5833333333333357  0.0833333333333357  0.3817991009012260   F   F   F
  0.4165484462583131  0.1672845343899121  0.4863639378222822   T   T   T
  0.5833333333333357  0.3333333333333357  0.3817991009012260   F   F   F
  0.5833333333333357  0.5833333333333357  0.3817991009012260   F   F   F
  0.5833333333333357  0.8333333333333357  0.3817991009012260   F   F   F
  0.4131335676915062  0.9169523735065852  0.4800014782120285   T   T   T
  0.8333333333333357  0.0833333333333357  0.3817991009012260   F   F   F
  0.6657561148491680  0.1709775637067944  0.4825507033718787   T   T   T
  0.8333333333333357  0.3333333333333357  0.3817991009012260   F   F   F
  0.3333333333333357  0.5833333333333357  0.3817991009012260   F   F   F
  0.0783495386908137  0.1042005668861870  0.6149494425203855   T   T   T
  0.5999421149241124  0.8066584181158404  0.6148198110444455   T   T   T
  0.3357959711204679  0.0802413809262993  0.6177131603614695   T   T   T
  0.0829110073478439  0.8189845149189495  0.6151725833432768   T   T   T
  0.8218567817881490  0.0834494703166004  0.6166640992049224   T   T   T
  0.3422292912336708  0.5906241968358805  0.6152400627378750   T   T   T
  0.3292701836766913  0.3354729719907595  0.6213432196156311   T   T   T
  0.5895423288535931  0.3448624693824346  0.6166992163123661   T   T   T
 -0.0059271239678137  0.5020819794645829  0.5671295748934203   T   T   T
  0.2376781355816549  0.5070851046466937  0.5800576839886241   T   T   T
  0.6648176214757535  0.6660321891914579  0.4744081943960473   T   T   T
  0.1653347405736701  0.9194668845763916  0.4814434936228390   T   T   T
  0.2524096891961203  0.7543115775610306  0.5698596058193537   T   T   T
  0.7556185980382288  0.7415488651115437  0.5662644210157193   T   T   T
  0.9157380104521390  0.6671208912553049  0.4782027253389556   T   T   T
  0.5100875523568026 -0.0054268885459653  0.5764944561234697   T   T   T
  0.4174483457873027  0.4171384102785050  0.4788794964233850   T   T   T
  0.5070532292266605  0.2405574329230639  0.5794787508463221   T   T   T
 -0.0057632907767267  0.2648634434490645  0.5691914328575991   T   T   T
  0.2399693979998289  0.2575577335957457  0.5768069071205815   T   T   T
  0.5055301903467944  0.5028340573570420  0.5681987973238471   T   T   T
  0.7515888495192037  0.4998901944820656  0.5626751939756565   T   T   T
  0.7556541671469994  0.2551840351156531  0.5724942350439782   T   T   T
  0.6638691944338481  0.4172605008167738  0.4771129760540480   T   T   T
  0.9173342488431683  0.1672992592277490  0.4804781231613964   T   T   T
  0.7479044644299929 -0.0078665001840186  0.5724064315415093   T   T   T
 -0.0014177204924358  0.0011327039708346  0.5764016180848845   T   T   T
  0.5017375795163409  0.7439119566585477  0.5669151946098587   T   T   T
  0.1659415950627266  0.1669585287512120  0.4793302359926551   T   T   T
  0.2531516384513051 -0.0050577684639773  0.5733776238726462   T   T   T
  0.4166209126419077  0.6656263559969360  0.4791691283811134   T   T   T
 -0.0087387625085972  0.7441305630261154  0.5701649307493520   T   T   T
 
  0.00000000E+00  0.00000000E+00  0.00000000E+00
  0.00000000E+00  0.00000000E+00  0.00000000E+00
  0.00000000E+00  0.00000000E+00  0.00000000E+00
  0.00000000E+00  0.00000000E+00  0.00000000E+00
  0.00000000E+00  0.00000000E+00  0.00000000E+00
  0.00000000E+00  0.00000000E+00  0.00000000E+00
  0.00000000E+00  0.00000000E+00  0.00000000E+00
  0.00000000E+00  0.00000000E+00  0.00000000E+00
  0.00000000E+00  0.00000000E+00  0.00000000E+00
  0.00000000E+00  0.00000000E+00  0.00000000E+00
  0.00000000E+00  0.00000000E+00  0.00000000E+00
  0.00000000E+00  0.00000000E+00  0.00000000E+00
  0.00000000E+00  0.00000000E+00  0.00000000E+00
  0.00000000E+00  0.00000000E+00  0.00000000E+00
  0.00000000E+00  0.00000000E+00  0.00000000E+00
  0.00000000E+00  0.00000000E+00  0.00000000E+00
  0.00000000E+00  0.00000000E+00  0.00000000E+00
  0.00000000E+00  0.00000000E+00  0.00000000E+00
  0.00000000E+00  0.00000000E+00  0.00000000E+00
  0.00000000E+00  0.00000000E+00  0.00000000E+00
  0.00000000E+00  0.00000000E+00  0.00000000E+00
  0.00000000E+00  0.00000000E+00  0.00000000E+00
  0.00000000E+00  0.00000000E+00  0.00000000E+00
  0.00000000E+00  0.00000000E+00  0.00000000E+00
  0.00000000E+00  0.00000000E+00  0.00000000E+00
  0.00000000E+00  0.00000000E+00  0.00000000E+00
  0.00000000E+00  0.00000000E+00  0.00000000E+00
  0.00000000E+00  0.00000000E+00  0.00000000E+00
  0.00000000E+00  0.00000000E+00  0.00000000E+00
  0.00000000E+00  0.00000000E+00  0.00000000E+00
  0.00000000E+00  0.00000000E+00  0.00000000E+00
  0.00000000E+00  0.00000000E+00  0.00000000E+00
  0.00000000E+00  0.00000000E+00  0.00000000E+00
  0.00000000E+00  0.00000000E+00  0.00000000E+00
  0.00000000E+00  0.00000000E+00  0.00000000E+00
  0.00000000E+00  0.00000000E+00  0.00000000E+00
  0.00000000E+00  0.00000000E+00  0.00000000E+00
  0.00000000E+00  0.00000000E+00  0.00000000E+00
  0.00000000E+00  0.00000000E+00  0.00000000E+00
  0.00000000E+00  0.00000000E+00  0.00000000E+00
  0.00000000E+00  0.00000000E+00  0.00000000E+00
  0.00000000E+00  0.00000000E+00  0.00000000E+00
  0.00000000E+00  0.00000000E+00  0.00000000E+00
  0.00000000E+00  0.00000000E+00  0.00000000E+00
  0.00000000E+00  0.00000000E+00  0.00000000E+00
  0.00000000E+00  0.00000000E+00  0.00000000E+00
  0.00000000E+00  0.00000000E+00  0.00000000E+00
  0.00000000E+00  0.00000000E+00  0.00000000E+00
  0.00000000E+00  0.00000000E+00  0.00000000E+00
  0.00000000E+00  0.00000000E+00  0.00000000E+00
  0.00000000E+00  0.00000000E+00  0.00000000E+00
  0.00000000E+00  0.00000000E+00  0.00000000E+00
  0.00000000E+00  0.00000000E+00  0.00000000E+00
  0.00000000E+00  0.00000000E+00  0.00000000E+00
  0.00000000E+00  0.00000000E+00  0.00000000E+00
  0.00000000E+00  0.00000000E+00  0.00000000E+00
