Au  O Pd                                
   1.00000000000000     
    11.0025815152626798    0.0000000000000000    0.0000000000000000
     5.5012907576313399    9.5285150994265617    0.0000000000000000
     0.0000000000000000    0.0000000000000000   26.1917850942952910
   Au   O    Pd
    24     8    24
Selective dynamics
Direct
  0.0833333333333357  0.0833333333333357  0.3817991009012260   F   F   F
  0.3333333333333357  0.8333333333333357  0.3817991009012260   F   F   F
  0.8333333333333357  0.8333333333333357  0.3817991009012260   F   F   F
  0.9119321837825973  0.1710817195334872  0.4819912364487643   T   T   T
  0.8333333333333357  0.3333333333333357  0.3817991009012260   F   F   F
  0.8333333333333357  0.0833333333333357  0.3817991009012260   F   F   F
  0.9164595772849143  0.4184540674751916  0.4861126233628615   T   T   T
  0.8333333333333357  0.5833333333333357  0.3817991009012260   F   F   F
  0.4995506610371992  0.7501321187089554  0.5676524453235394   T   T   T
  0.0833333333333357  0.5833333333333357  0.3817991009012260   F   F   F
  0.9196614148306509  0.6667790552688938  0.4772128535257728   T   T   T
  0.0833333333333357  0.8333333333333357  0.3817991009012260   F   F   F
  0.4151180466049323  0.9195101697657747  0.4760556761756626   T   T   T
  0.5833333333333357  0.8333333333333357  0.3817991009012260   F   F   F
  0.6673385322968776  0.6650695928049042  0.4778055931763782   T   T   T
  0.5833333333333357  0.5833333333333357  0.3817991009012260   F   F   F
  0.3333333333333357  0.0833333333333357  0.3817991009012260   F   F   F
  0.1632648012897375  0.1731564087100715  0.4806231945483451   T   T   T
  0.4163017251438165  0.4217501672677265  0.4837691916826723   T   T   T
  0.3333333333333357  0.3333333333333357  0.3817991009012260   F   F   F
  0.5833333333333357  0.3333333333333357  0.3817991009012260   F   F   F
  0.4160541657379933  0.1729116962527377  0.4826579242373439   T   T   T
  0.5833333333333357  0.0833333333333357  0.3817991009012260   F   F   F
  0.3333333333333357  0.5833333333333357  0.3817991009012260   F   F   F
  0.0823077218948279  0.3353444182050443  0.6222513654130954   T   T   T
  0.8227325937329694  0.6124923647496600  0.6193880610468103   T   T   T
  0.3509966061915620  0.0476885214046090  0.6156911579627159   T   T   T
  0.3360073427951098  0.3366842335802401  0.6186456437053901   T   T   T
  0.8337343605140426  0.3335738169315356  0.6226294876792090   T   T   T
  0.3143673675458034  0.6142307614141489  0.6164967189536429   T   T   T
  0.8529649682709699  0.0412480867164905  0.6131527062575156   T   T   T
  0.5812701850804902  0.3331918287092382  0.6198724052322347   T   T   T
  0.1676717851689155  0.6676523870971584  0.4749530414653976   T   T   T
  0.1652883732773328  0.9175853633131649  0.4774207370267578   T   T   T
  0.2474605001427241  0.7553731208624119  0.5628169176950780   T   T   T
  0.7491884459258086  0.7558372646088163  0.5659206087861027   T   T   T
  0.2541779154231787  0.2407088392562002  0.5807496537261094   T   T   T
  0.5098737108889343 -0.0091242218416917  0.5675814885034081   T   T   T
  0.7428855845765633  0.5089411535645725  0.5812783754427311   T   T   T
  0.1663856272857445  0.4206534227209273  0.4856983950973220   T   T   T
  0.5079071206040404  0.2371047153927310  0.5766476214231243   T   T   T
  0.2493452717821136 -0.0074040923523758  0.5665045609679126   T   T   T
  0.2396795984072900  0.5104564282652873  0.5762006423987881   T   T   T
  0.7562803486922342  0.2400394068036149  0.5798641377905080   T   T   T
  0.0012769414602097  0.7515909617891683  0.5623152066193120   T   T   T
  0.9162641876695596  0.9191743799457998  0.4734132039791510   T   T   T
  0.0021538851931873  0.5100019795893013  0.5800846189296606   T   T   T
  0.0082932501486364  0.2339805796224215  0.5822913326749107   T   T   T
  0.0833333333333357  0.3333333333333357  0.3817991009012260   F   F   F
  0.6654334240686030  0.1710726613929043  0.4789206288451602   T   T   T
  0.7518068424622910 -0.0087814573747303  0.5635398236768863   T   T   T
  0.6671336804089452  0.9199554782363012  0.4777257926574557   T   T   T
  0.0092620573398096 -0.0096306111343459  0.5654393330855311   T   T   T
  0.6642732017689063  0.4193838141013145  0.4887579619579960   T   T   T
  0.4988268025740453  0.5097017702317117  0.5792743889155894   T   T   T
  0.4167477571672269  0.6667746342621029  0.4755734188887480   T   T   T
 
  0.00000000E+00  0.00000000E+00  0.00000000E+00
  0.00000000E+00  0.00000000E+00  0.00000000E+00
  0.00000000E+00  0.00000000E+00  0.00000000E+00
  0.00000000E+00  0.00000000E+00  0.00000000E+00
  0.00000000E+00  0.00000000E+00  0.00000000E+00
  0.00000000E+00  0.00000000E+00  0.00000000E+00
  0.00000000E+00  0.00000000E+00  0.00000000E+00
  0.00000000E+00  0.00000000E+00  0.00000000E+00
  0.00000000E+00  0.00000000E+00  0.00000000E+00
  0.00000000E+00  0.00000000E+00  0.00000000E+00
  0.00000000E+00  0.00000000E+00  0.00000000E+00
  0.00000000E+00  0.00000000E+00  0.00000000E+00
  0.00000000E+00  0.00000000E+00  0.00000000E+00
  0.00000000E+00  0.00000000E+00  0.00000000E+00
  0.00000000E+00  0.00000000E+00  0.00000000E+00
  0.00000000E+00  0.00000000E+00  0.00000000E+00
  0.00000000E+00  0.00000000E+00  0.00000000E+00
  0.00000000E+00  0.00000000E+00  0.00000000E+00
  0.00000000E+00  0.00000000E+00  0.00000000E+00
  0.00000000E+00  0.00000000E+00  0.00000000E+00
  0.00000000E+00  0.00000000E+00  0.00000000E+00
  0.00000000E+00  0.00000000E+00  0.00000000E+00
  0.00000000E+00  0.00000000E+00  0.00000000E+00
  0.00000000E+00  0.00000000E+00  0.00000000E+00
  0.00000000E+00  0.00000000E+00  0.00000000E+00
  0.00000000E+00  0.00000000E+00  0.00000000E+00
  0.00000000E+00  0.00000000E+00  0.00000000E+00
  0.00000000E+00  0.00000000E+00  0.00000000E+00
  0.00000000E+00  0.00000000E+00  0.00000000E+00
  0.00000000E+00  0.00000000E+00  0.00000000E+00
  0.00000000E+00  0.00000000E+00  0.00000000E+00
  0.00000000E+00  0.00000000E+00  0.00000000E+00
  0.00000000E+00  0.00000000E+00  0.00000000E+00
  0.00000000E+00  0.00000000E+00  0.00000000E+00
  0.00000000E+00  0.00000000E+00  0.00000000E+00
  0.00000000E+00  0.00000000E+00  0.00000000E+00
  0.00000000E+00  0.00000000E+00  0.00000000E+00
  0.00000000E+00  0.00000000E+00  0.00000000E+00
  0.00000000E+00  0.00000000E+00  0.00000000E+00
  0.00000000E+00  0.00000000E+00  0.00000000E+00
  0.00000000E+00  0.00000000E+00  0.00000000E+00
  0.00000000E+00  0.00000000E+00  0.00000000E+00
  0.00000000E+00  0.00000000E+00  0.00000000E+00
  0.00000000E+00  0.00000000E+00  0.00000000E+00
  0.00000000E+00  0.00000000E+00  0.00000000E+00
  0.00000000E+00  0.00000000E+00  0.00000000E+00
  0.00000000E+00  0.00000000E+00  0.00000000E+00
  0.00000000E+00  0.00000000E+00  0.00000000E+00
  0.00000000E+00  0.00000000E+00  0.00000000E+00
  0.00000000E+00  0.00000000E+00  0.00000000E+00
  0.00000000E+00  0.00000000E+00  0.00000000E+00
  0.00000000E+00  0.00000000E+00  0.00000000E+00
  0.00000000E+00  0.00000000E+00  0.00000000E+00
  0.00000000E+00  0.00000000E+00  0.00000000E+00
  0.00000000E+00  0.00000000E+00  0.00000000E+00
  0.00000000E+00  0.00000000E+00  0.00000000E+00
