Au  O Pd                                
   1.00000000000000     
    11.0025815152626798    0.0000000000000000    0.0000000000000000
     5.5012907576313399    9.5285150994265617    0.0000000000000000
     0.0000000000000000    0.0000000000000000   26.1917850942952910
   Au   O    Pd
    24     8    24
Selective dynamics
Direct
  0.0833333333333357  0.0833333333333357  0.3817991009012260   F   F   F
  0.2439521643400211  0.4951733627933792  0.5698908800777378   T   T   T
  0.7512736235623606 -0.0128705069039661  0.5639330861541045   T   T   T
  0.8333333333333357  0.8333333333333357  0.3817991009012260   F   F   F
 -0.0303560117199231  0.0067843279741431  0.5972319832473306   T   T   T
  0.8333333333333357  0.5833333333333357  0.3817991009012260   F   F   F
  0.0833333333333357  0.3333333333333357  0.3817991009012260   F   F   F
  0.9112704661366993  0.4164566238656044  0.4798611791343655   T   T   T
  0.0099598232437719  0.2483032213949340  0.5621398428788602   T   T   T
  0.7440191162952888  0.2418789910311676  0.5645541787150052   T   T   T
  0.9178181246203080  0.6658215259181649  0.4809406512839098   T   T   T
  0.9250501539699393  0.9136483647014038  0.4739263395990761   T   T   T
  0.8333333333333357  0.3333333333333357  0.3817991009012260   F   F   F
  0.2399082878298504  0.7437660641699423  0.5610666911167149   T   T   T
 -0.0213827198761094  0.7412140811349747  0.6005358570334157   T   T   T
  0.4911016633348758  0.2478890626999471  0.5700731941878574   T   T   T
  0.2612081029790835  0.0026415355019370  0.5584110779617679   T   T   T
  0.5833333333333357  0.3333333333333357  0.3817991009012260   F   F   F
  0.3333333333333357  0.3333333333333357  0.3817991009012260   F   F   F
  0.1659604149387606  0.4123695513033658  0.4789439775511204   T   T   T
  0.2571458211726762  0.2954434541721928  0.6362742536509186   T   T   T
  0.4157618168156877  0.1593149448769235  0.4780715644876439   T   T   T
  0.3333333333333357  0.5833333333333357  0.3817991009012260   F   F   F
  0.6669220058582735  0.1624219070657165  0.4744247917974582   T   T   T
  0.0645501675102601  0.4478343670526254  0.6431142263172281   T   T   T
  0.1051545117286388  0.8081830834582572  0.6322745643657017   T   T   T
  0.4259366340947174  0.1102104076407078  0.6464318423007347   T   T   T
  0.1037456219369034  0.0893809797215101  0.6140336742033572   T   T   T
  0.3330119972109664  0.8348111410586592  0.6089576959322871   T   T   T
  0.8388145702190067  0.3196705067223437  0.6167914644786396   T   T   T
  0.5696745496532085  0.5621962223585876  0.6114218880420351   T   T   T
  0.6117526609345205  0.8171911638732479  0.6158301049716779   T   T   T
  0.4980177745163693  0.0041418130647060  0.5818122535780224   T   T   T
  0.3333333333333357  0.0833333333333357  0.3817991009012260   F   F   F
  0.4128306470152719  0.4147544929753441  0.4767086930432640   T   T   T
  0.1696789023700165  0.1599286213302581  0.4741325601674884   T   T   T
  0.1675282109561616  0.6631296968560771  0.4756314084467084   T   T   T
  0.1704936226047373  0.9111843684123102  0.4705517295634479   T   T   T
  0.5833333333333357  0.5833333333333357  0.3817991009012260   F   F   F
  0.4111546301751874  0.6680557035531632  0.4758176045883664   T   T   T
  0.4953291223821826  0.4906825163247725  0.5606890732999560   T   T   T
  0.4171812154806973  0.9091978402017378  0.4719842305330716   T   T   T
  0.5833333333333357  0.8333333333333357  0.3817991009012260   F   F   F
  0.5129306705584437  0.7396847957706025  0.5698803683336042   T   T   T
  0.8333333333333357  0.0833333333333357  0.3817991009012260   F   F   F
  0.0833333333333357  0.8333333333333357  0.3817991009012260   F   F   F
 -0.0023941732706902  0.4980879561101306  0.5721698076165042   T   T   T
  0.6593348291797563  0.4222584960069821  0.4720956834901369   T   T   T
  0.0833333333333357  0.5833333333333357  0.3817991009012260   F   F   F
  0.6619927380828254  0.6636965196410274  0.4740275031247869   T   T   T
  0.7547522448529602  0.4980524567013494  0.5779780229828345   T   T   T
  0.9179047195252216  0.1628875543999904  0.4727904709503465   T   T   T
  0.6612996713624465  0.9114813570127491  0.4724442104160265   T   T   T
  0.3333333333333357  0.8333333333333357  0.3817991009012260   F   F   F
  0.7526966219526943  0.7451529991053468  0.5623509770348610   T   T   T
  0.5833333333333357  0.0833333333333357  0.3817991009012260   F   F   F
 
  0.00000000E+00  0.00000000E+00  0.00000000E+00
  0.00000000E+00  0.00000000E+00  0.00000000E+00
  0.00000000E+00  0.00000000E+00  0.00000000E+00
  0.00000000E+00  0.00000000E+00  0.00000000E+00
  0.00000000E+00  0.00000000E+00  0.00000000E+00
  0.00000000E+00  0.00000000E+00  0.00000000E+00
  0.00000000E+00  0.00000000E+00  0.00000000E+00
  0.00000000E+00  0.00000000E+00  0.00000000E+00
  0.00000000E+00  0.00000000E+00  0.00000000E+00
  0.00000000E+00  0.00000000E+00  0.00000000E+00
  0.00000000E+00  0.00000000E+00  0.00000000E+00
  0.00000000E+00  0.00000000E+00  0.00000000E+00
  0.00000000E+00  0.00000000E+00  0.00000000E+00
  0.00000000E+00  0.00000000E+00  0.00000000E+00
  0.00000000E+00  0.00000000E+00  0.00000000E+00
  0.00000000E+00  0.00000000E+00  0.00000000E+00
  0.00000000E+00  0.00000000E+00  0.00000000E+00
  0.00000000E+00  0.00000000E+00  0.00000000E+00
  0.00000000E+00  0.00000000E+00  0.00000000E+00
  0.00000000E+00  0.00000000E+00  0.00000000E+00
  0.00000000E+00  0.00000000E+00  0.00000000E+00
  0.00000000E+00  0.00000000E+00  0.00000000E+00
  0.00000000E+00  0.00000000E+00  0.00000000E+00
  0.00000000E+00  0.00000000E+00  0.00000000E+00
  0.00000000E+00  0.00000000E+00  0.00000000E+00
  0.00000000E+00  0.00000000E+00  0.00000000E+00
  0.00000000E+00  0.00000000E+00  0.00000000E+00
  0.00000000E+00  0.00000000E+00  0.00000000E+00
  0.00000000E+00  0.00000000E+00  0.00000000E+00
  0.00000000E+00  0.00000000E+00  0.00000000E+00
  0.00000000E+00  0.00000000E+00  0.00000000E+00
  0.00000000E+00  0.00000000E+00  0.00000000E+00
  0.00000000E+00  0.00000000E+00  0.00000000E+00
  0.00000000E+00  0.00000000E+00  0.00000000E+00
  0.00000000E+00  0.00000000E+00  0.00000000E+00
  0.00000000E+00  0.00000000E+00  0.00000000E+00
  0.00000000E+00  0.00000000E+00  0.00000000E+00
  0.00000000E+00  0.00000000E+00  0.00000000E+00
  0.00000000E+00  0.00000000E+00  0.00000000E+00
  0.00000000E+00  0.00000000E+00  0.00000000E+00
  0.00000000E+00  0.00000000E+00  0.00000000E+00
  0.00000000E+00  0.00000000E+00  0.00000000E+00
  0.00000000E+00  0.00000000E+00  0.00000000E+00
  0.00000000E+00  0.00000000E+00  0.00000000E+00
  0.00000000E+00  0.00000000E+00  0.00000000E+00
  0.00000000E+00  0.00000000E+00  0.00000000E+00
  0.00000000E+00  0.00000000E+00  0.00000000E+00
  0.00000000E+00  0.00000000E+00  0.00000000E+00
  0.00000000E+00  0.00000000E+00  0.00000000E+00
  0.00000000E+00  0.00000000E+00  0.00000000E+00
  0.00000000E+00  0.00000000E+00  0.00000000E+00
  0.00000000E+00  0.00000000E+00  0.00000000E+00
  0.00000000E+00  0.00000000E+00  0.00000000E+00
  0.00000000E+00  0.00000000E+00  0.00000000E+00
  0.00000000E+00  0.00000000E+00  0.00000000E+00
  0.00000000E+00  0.00000000E+00  0.00000000E+00
