Au Pd                                   
   1.00000000000000     
    11.0025815152626798    0.0000000000000000    0.0000000000000000
     5.5012907576313399    9.5285150994265617    0.0000000000000000
     0.0000000000000000    0.0000000000000000   24.4917850942952882
   Au   Pd
    24    24
Direct
  0.2514145775711937 -0.0019064282360967  0.6040463569987817
  0.5836037611585669  0.5816758871071698  0.3950770448960180
  0.4157853207627794  0.6678954172636845  0.4992793402702235
  0.4981848141225576  0.5015770043913829  0.6073146838827335
  0.5808747962664903  0.8369420205563927  0.3956269931497726
  0.4175798095308071  0.9184022157223931  0.5000029964052141
  0.3282485258561536  0.8378794988302982  0.3953063302329332
  0.5029776007726420  0.7490333832528566  0.6029467148142166
  0.8317700248970735  0.0872553826447585  0.3998549105075824
  0.3318156256512939  0.5838969833916176  0.3929831891580562
  0.2506953413041651  0.2511026563495217  0.6016018722567240
  0.3341573375787123  0.3292654642579146  0.3983967972949005
  0.4992030322301748  0.2491866146175492  0.6037084423523186
  0.4162462657109031  0.4159797597794420  0.5000040961071266
  0.6695027307812926  0.4156675447034130  0.5004215514176832
  0.9185310386918376  0.9157847463880080  0.4991000876916045
  0.7497369596365266  0.2500347590215232  0.6039382175641388
 -0.0019425547291041  0.5041386141646260  0.5994070407884612
  0.8349832959702588  0.5793237031537175  0.3978854124302004
  0.0834174586134784  0.5819113969026509  0.3976401685823157
 -0.0015033511025215  0.2521802441120717  0.6026685577703835
  0.0018092064375124 -0.0036127018179509  0.6026471591670641
  0.8320657728316402  0.8355041385762065  0.3963565297471688
  0.7502910229834894 -0.0050215394112005  0.6016516454645678
  0.8338707743853881  0.3322037407483986  0.4043435658443114
  0.6675344474041860  0.1646880967765396  0.5016354137134612
  0.6689171409692694  0.6670130446039578  0.4972745404474477
  0.7490670008669350  0.5015002014545392  0.5963257514661185
  0.0823733551837688  0.0852165796187150  0.4063855082742162
  0.2500260901232942  0.7485678872799997  0.5955755027840637
  0.5011580221029788 -0.0014335647432291  0.5967901495199162
  0.9188137038915072  0.1669429319006268  0.5019807992664553
  0.0832420441099841  0.3293652985134342  0.4060520235201867
  0.9181478891464013  0.4170801012859899  0.5006298482419838
  0.9178933650144731  0.6644994449101361  0.4974817537277758
  0.0823002561513158  0.8356842767881716  0.4022259083947315
  0.0022738570358979  0.7477924719256358  0.5937714170806030
  0.3303482591688460  0.0851583075988307  0.4050653613867953
  0.1658749129661917  0.1680322947630979  0.5028888797827301
  0.1659313197302604  0.4164665061053632  0.4997349876880829
  0.1670162872035474  0.6660061107987025  0.4972376199663195
  0.2492702754615926  0.5023397269771693  0.5954182379207772
  0.1668990912208061  0.9183537458215838  0.5005953449173796
  0.6680486981991187  0.9161414166319619  0.4985121464117224
  0.5820779612398795  0.0846664115965287  0.4047288719582682
  0.4169312811106272  0.1673986425631909  0.5010040721130747
  0.5827262059244287  0.3331413209293196  0.4037313505607367
  0.7498093478613781  0.7490782394293855  0.5927448060626526
 
  0.00000000E+00  0.00000000E+00  0.00000000E+00
  0.00000000E+00  0.00000000E+00  0.00000000E+00
  0.00000000E+00  0.00000000E+00  0.00000000E+00
  0.00000000E+00  0.00000000E+00  0.00000000E+00
  0.00000000E+00  0.00000000E+00  0.00000000E+00
  0.00000000E+00  0.00000000E+00  0.00000000E+00
  0.00000000E+00  0.00000000E+00  0.00000000E+00
  0.00000000E+00  0.00000000E+00  0.00000000E+00
  0.00000000E+00  0.00000000E+00  0.00000000E+00
  0.00000000E+00  0.00000000E+00  0.00000000E+00
  0.00000000E+00  0.00000000E+00  0.00000000E+00
  0.00000000E+00  0.00000000E+00  0.00000000E+00
  0.00000000E+00  0.00000000E+00  0.00000000E+00
  0.00000000E+00  0.00000000E+00  0.00000000E+00
  0.00000000E+00  0.00000000E+00  0.00000000E+00
  0.00000000E+00  0.00000000E+00  0.00000000E+00
  0.00000000E+00  0.00000000E+00  0.00000000E+00
  0.00000000E+00  0.00000000E+00  0.00000000E+00
  0.00000000E+00  0.00000000E+00  0.00000000E+00
  0.00000000E+00  0.00000000E+00  0.00000000E+00
  0.00000000E+00  0.00000000E+00  0.00000000E+00
  0.00000000E+00  0.00000000E+00  0.00000000E+00
  0.00000000E+00  0.00000000E+00  0.00000000E+00
  0.00000000E+00  0.00000000E+00  0.00000000E+00
  0.00000000E+00  0.00000000E+00  0.00000000E+00
  0.00000000E+00  0.00000000E+00  0.00000000E+00
  0.00000000E+00  0.00000000E+00  0.00000000E+00
  0.00000000E+00  0.00000000E+00  0.00000000E+00
  0.00000000E+00  0.00000000E+00  0.00000000E+00
  0.00000000E+00  0.00000000E+00  0.00000000E+00
  0.00000000E+00  0.00000000E+00  0.00000000E+00
  0.00000000E+00  0.00000000E+00  0.00000000E+00
  0.00000000E+00  0.00000000E+00  0.00000000E+00
  0.00000000E+00  0.00000000E+00  0.00000000E+00
  0.00000000E+00  0.00000000E+00  0.00000000E+00
  0.00000000E+00  0.00000000E+00  0.00000000E+00
  0.00000000E+00  0.00000000E+00  0.00000000E+00
  0.00000000E+00  0.00000000E+00  0.00000000E+00
  0.00000000E+00  0.00000000E+00  0.00000000E+00
  0.00000000E+00  0.00000000E+00  0.00000000E+00
  0.00000000E+00  0.00000000E+00  0.00000000E+00
  0.00000000E+00  0.00000000E+00  0.00000000E+00
  0.00000000E+00  0.00000000E+00  0.00000000E+00
  0.00000000E+00  0.00000000E+00  0.00000000E+00
  0.00000000E+00  0.00000000E+00  0.00000000E+00
  0.00000000E+00  0.00000000E+00  0.00000000E+00
  0.00000000E+00  0.00000000E+00  0.00000000E+00
  0.00000000E+00  0.00000000E+00  0.00000000E+00
