Au Pd                                   
   1.00000000000000     
    11.0025815152626798    0.0000000000000000    0.0000000000000000
     5.5012907576313399    9.5285150994265617    0.0000000000000000
     0.0000000000000000    0.0000000000000000   24.4917850942952882
   Au   Pd
    24    24
Direct
  0.5806378195839634  0.5841002728335790  0.3985427524578165
  0.4991315049683592  0.7520962344087397  0.6012279086069907
  0.1667551990112613  0.9144030032900859  0.5016686447900083
  0.3306037221597385  0.8343186884359026  0.3987375390886366
  0.2469949669462637  0.5071566126222092  0.5984822824945508
  0.3296661923083295  0.5798081732326483  0.4017120648475236
  0.2530805918172031  0.2434933101924547  0.5985688537429622
  0.6632291861933094  0.1663863264418743  0.5001085772119700
  0.5044289960968036  0.2440543039650030  0.5998263757649472
  0.8350605504382562  0.3276498040947107  0.3984026033039451
  0.6646969209739635  0.4165271562542348  0.5016255199833262
  0.5822469994307576  0.0856822215334615  0.4000854877876027
  0.3321614804514995  0.0861818653388483  0.4000445855915796
  0.9188693898870991  0.9137485098286416  0.5017655215438135
  0.8350849424150417  0.5840340932463582  0.3984746974024009
 -0.0052839911120522  0.5043546697081663  0.5997776199963863
  0.9219474731150302  0.6649837326951507  0.5018069946483390
  0.6683335668490490  0.6687808913907156  0.5020726001266768
 -0.0020528830185331  0.2482055911456195  0.5999427818452508
  0.0872322659758467  0.3328367708777857  0.4017018425141021
  0.8344837779230250  0.8345794086877739  0.3986368403750317
  0.9210626561703454  0.1650823198328178  0.5002199344138597
  0.5003147202934302  0.5016477487446361  0.6000014587193950
  0.4179955246606682  0.9222268002586923  0.5019437242269282
  0.5839408427393032  0.8345520947334611  0.4024841294015503
  0.4114070844866672  0.6653268557696533  0.5009725361720488
  0.0820458037397107  0.0816231011432508  0.4025791219464496
  0.7522790938466041  0.2479541965573491  0.5981011090393686
  0.7509439220510493  0.4994068273772239  0.5972423781037061
  0.8351917262718750  0.0833096339090821  0.4019335938982041
  0.7506861181402523 -0.0029615917821719  0.5969337852998607
  0.2458510658876124  0.7528842469741960  0.5958729284616577
  0.5818605178721546  0.3318262383270815  0.4030158709221683
  0.5021752621605875 -0.0006405581422200  0.5959246183925886
  0.4140426234068929  0.1691095637392133  0.5000647808074485
  0.6632450896539400  0.9185966804916064  0.5023784083708905
  0.1690563552967380  0.6640807597342797  0.5000015963716214
  0.1705908987182573  0.4148281345247308  0.4977141964839508
  0.3327079379269057  0.3354752920136821  0.4052420129263781
  0.2495036917287234 -0.0011433636538167  0.5967948959515772
  0.1672904417212166  0.1688410844372721  0.5002500035355489
 -0.0011199010819975  0.7532077396778835  0.5965761814315360
  0.0818673974467582  0.8343102365562660  0.4028931395508816
  0.0875564845990453  0.5829316675436220  0.4041792947575620
  0.9197506094641374  0.4153838358813250  0.5011427032804938
  0.0007633502355883 -0.0023820771668132  0.5976186371000546
  0.4117544970757284  0.4178545339973863  0.4978384627412203
  0.7499275130735904  0.7532863582963469  0.5968684035691895
 
  0.00000000E+00  0.00000000E+00  0.00000000E+00
  0.00000000E+00  0.00000000E+00  0.00000000E+00
  0.00000000E+00  0.00000000E+00  0.00000000E+00
  0.00000000E+00  0.00000000E+00  0.00000000E+00
  0.00000000E+00  0.00000000E+00  0.00000000E+00
  0.00000000E+00  0.00000000E+00  0.00000000E+00
  0.00000000E+00  0.00000000E+00  0.00000000E+00
  0.00000000E+00  0.00000000E+00  0.00000000E+00
  0.00000000E+00  0.00000000E+00  0.00000000E+00
  0.00000000E+00  0.00000000E+00  0.00000000E+00
  0.00000000E+00  0.00000000E+00  0.00000000E+00
  0.00000000E+00  0.00000000E+00  0.00000000E+00
  0.00000000E+00  0.00000000E+00  0.00000000E+00
  0.00000000E+00  0.00000000E+00  0.00000000E+00
  0.00000000E+00  0.00000000E+00  0.00000000E+00
  0.00000000E+00  0.00000000E+00  0.00000000E+00
  0.00000000E+00  0.00000000E+00  0.00000000E+00
  0.00000000E+00  0.00000000E+00  0.00000000E+00
  0.00000000E+00  0.00000000E+00  0.00000000E+00
  0.00000000E+00  0.00000000E+00  0.00000000E+00
  0.00000000E+00  0.00000000E+00  0.00000000E+00
  0.00000000E+00  0.00000000E+00  0.00000000E+00
  0.00000000E+00  0.00000000E+00  0.00000000E+00
  0.00000000E+00  0.00000000E+00  0.00000000E+00
  0.00000000E+00  0.00000000E+00  0.00000000E+00
  0.00000000E+00  0.00000000E+00  0.00000000E+00
  0.00000000E+00  0.00000000E+00  0.00000000E+00
  0.00000000E+00  0.00000000E+00  0.00000000E+00
  0.00000000E+00  0.00000000E+00  0.00000000E+00
  0.00000000E+00  0.00000000E+00  0.00000000E+00
  0.00000000E+00  0.00000000E+00  0.00000000E+00
  0.00000000E+00  0.00000000E+00  0.00000000E+00
  0.00000000E+00  0.00000000E+00  0.00000000E+00
  0.00000000E+00  0.00000000E+00  0.00000000E+00
  0.00000000E+00  0.00000000E+00  0.00000000E+00
  0.00000000E+00  0.00000000E+00  0.00000000E+00
  0.00000000E+00  0.00000000E+00  0.00000000E+00
  0.00000000E+00  0.00000000E+00  0.00000000E+00
  0.00000000E+00  0.00000000E+00  0.00000000E+00
  0.00000000E+00  0.00000000E+00  0.00000000E+00
  0.00000000E+00  0.00000000E+00  0.00000000E+00
  0.00000000E+00  0.00000000E+00  0.00000000E+00
  0.00000000E+00  0.00000000E+00  0.00000000E+00
  0.00000000E+00  0.00000000E+00  0.00000000E+00
  0.00000000E+00  0.00000000E+00  0.00000000E+00
  0.00000000E+00  0.00000000E+00  0.00000000E+00
  0.00000000E+00  0.00000000E+00  0.00000000E+00
  0.00000000E+00  0.00000000E+00  0.00000000E+00
