Au Pd                                   
   1.00000000000000     
    11.0025815152626798    0.0000000000000000    0.0000000000000000
     5.5012907576313399    9.5285150994265617    0.0000000000000000
     0.0000000000000000    0.0000000000000000   24.4917850942952882
   Au   Pd
    24    24
Selective dynamics
Direct
  0.0833333333333357  0.0833333333333357  0.4083001692812189   F   F   F
  0.0833333333333357  0.3333333333333357  0.4083001692812189   F   F   F
  0.9159592874102556  0.6675970291616105  0.5080041438558587   T   T   T
  0.0833333333333357  0.8333333333333357  0.4083001692812189   F   F   F
  0.9131660324542008  0.4197896737461118  0.5097083463910087   T   T   T
  0.3333333333333357  0.3333333333333357  0.4083001692812189   F   F   F
  0.9157901067118439  0.1668667317468708  0.5101009226047096   T   T   T
  0.1691626146606950  0.1654332024040297  0.5103934473971988   T   T   T
  0.7527982141545331  0.7469906037793745  0.6103101056512656   T   T   T
  0.1694789963031138  0.4183483855628216  0.5101104871448423   T   T   T
  0.2489083693772105  0.2498692807306241  0.6142006845696404   T   T   T
  0.2490406063499487  0.5028175374232496  0.6118038344559511   T   T   T
  0.9179027837107355  0.9163656322663440  0.5099547791755841   T   T   T
  0.4994631433987385  0.0010651021895309  0.6104406420735716   T   T   T
  0.5833333333333357  0.3333333333333357  0.4083001692812189   F   F   F
  0.4164959697121151  0.6658336452635240  0.5055212054738686   T   T   T
  0.5022941240442816  0.4981261490778198  0.6097488145248021   T   T   T
  0.4186316946290682  0.9162281666458572  0.5060074345286227   T   T   T
  0.4993229628299547  0.7491846538408626  0.6112324190483005   T   T   T
  0.6638970203450837  0.1683730370604514  0.5098070450546671   T   T   T
  0.7524608541035034  0.0010057925563405  0.6129066566731939   T   T   T
  0.8333333333333357  0.3333333333333357  0.4083001692812189   F   F   F
  0.8333333333333357  0.8333333333333357  0.4083001692812189   F   F   F
  0.5833333333333357  0.0833333333333357  0.4083001692812189   F   F   F
  0.4161648802461388  0.4182997182434792  0.5087716572270715   T   T   T
  0.4170160765873457  0.1669742658891442  0.5089691156245089   T   T   T
  0.0021107181504314  0.7498430705277297  0.6062891409818564   T   T   T
  0.6654985862244239  0.9167082795677025  0.5092652856686629   T   T   T
  0.3333333333333357  0.5833333333333357  0.4083001692812189   F   F   F
  0.3333333333333357  0.8333333333333357  0.4083001692812189   F   F   F
  0.3333333333333357  0.0833333333333357  0.4083001692812189   F   F   F
  0.1683180114495750  0.6663012234209503  0.5073578133667136   T   T   T
  0.4996893094832895  0.2507225002946090  0.6064319253432251   T   T   T
  0.1682069714339305  0.9154619289395487  0.5077021494844168   T   T   T
  0.5833333333333357  0.5833333333333357  0.4083001692812189   F   F   F
  0.6656805377433198  0.6676108453947267  0.5067907701197781   T   T   T
  0.0833333333333357  0.5833333333333357  0.4083001692812189   F   F   F
  0.6640650435256835  0.4197244194718919  0.5082818342070817   T   T   T
  0.7518548188445133  0.4979414016720368  0.6058247394383891   T   T   T
  0.8333333333333357  0.5833333333333357  0.4083001692812189   F   F   F
  0.7510936626789446  0.2504877814528531  0.6065681759156911   T   T   T
  0.0039073744009565 -0.0013519654222919  0.6067567439998137   T   T   T
  0.8333333333333357  0.0833333333333357  0.4083001692812189   F   F   F
 -0.0008819447882642  0.2495633550334408  0.6073859484048185   T   T   T
  0.2487853561245187 -0.0007583170735727  0.6061696049657427   T   T   T
  0.5833333333333357  0.8333333333333357  0.4083001692812189   F   F   F
  0.0002631518095537  0.4992496785313228  0.6073173372496724   T   T   T
  0.2488471250779775  0.7512993539063212  0.6039327554898356   T   T   T
 
  0.00000000E+00  0.00000000E+00  0.00000000E+00
  0.00000000E+00  0.00000000E+00  0.00000000E+00
  0.00000000E+00  0.00000000E+00  0.00000000E+00
  0.00000000E+00  0.00000000E+00  0.00000000E+00
  0.00000000E+00  0.00000000E+00  0.00000000E+00
  0.00000000E+00  0.00000000E+00  0.00000000E+00
  0.00000000E+00  0.00000000E+00  0.00000000E+00
  0.00000000E+00  0.00000000E+00  0.00000000E+00
  0.00000000E+00  0.00000000E+00  0.00000000E+00
  0.00000000E+00  0.00000000E+00  0.00000000E+00
  0.00000000E+00  0.00000000E+00  0.00000000E+00
  0.00000000E+00  0.00000000E+00  0.00000000E+00
  0.00000000E+00  0.00000000E+00  0.00000000E+00
  0.00000000E+00  0.00000000E+00  0.00000000E+00
  0.00000000E+00  0.00000000E+00  0.00000000E+00
  0.00000000E+00  0.00000000E+00  0.00000000E+00
  0.00000000E+00  0.00000000E+00  0.00000000E+00
  0.00000000E+00  0.00000000E+00  0.00000000E+00
  0.00000000E+00  0.00000000E+00  0.00000000E+00
  0.00000000E+00  0.00000000E+00  0.00000000E+00
  0.00000000E+00  0.00000000E+00  0.00000000E+00
  0.00000000E+00  0.00000000E+00  0.00000000E+00
  0.00000000E+00  0.00000000E+00  0.00000000E+00
  0.00000000E+00  0.00000000E+00  0.00000000E+00
  0.00000000E+00  0.00000000E+00  0.00000000E+00
  0.00000000E+00  0.00000000E+00  0.00000000E+00
  0.00000000E+00  0.00000000E+00  0.00000000E+00
  0.00000000E+00  0.00000000E+00  0.00000000E+00
  0.00000000E+00  0.00000000E+00  0.00000000E+00
  0.00000000E+00  0.00000000E+00  0.00000000E+00
  0.00000000E+00  0.00000000E+00  0.00000000E+00
  0.00000000E+00  0.00000000E+00  0.00000000E+00
  0.00000000E+00  0.00000000E+00  0.00000000E+00
  0.00000000E+00  0.00000000E+00  0.00000000E+00
  0.00000000E+00  0.00000000E+00  0.00000000E+00
  0.00000000E+00  0.00000000E+00  0.00000000E+00
  0.00000000E+00  0.00000000E+00  0.00000000E+00
  0.00000000E+00  0.00000000E+00  0.00000000E+00
  0.00000000E+00  0.00000000E+00  0.00000000E+00
  0.00000000E+00  0.00000000E+00  0.00000000E+00
  0.00000000E+00  0.00000000E+00  0.00000000E+00
  0.00000000E+00  0.00000000E+00  0.00000000E+00
  0.00000000E+00  0.00000000E+00  0.00000000E+00
  0.00000000E+00  0.00000000E+00  0.00000000E+00
  0.00000000E+00  0.00000000E+00  0.00000000E+00
  0.00000000E+00  0.00000000E+00  0.00000000E+00
  0.00000000E+00  0.00000000E+00  0.00000000E+00
  0.00000000E+00  0.00000000E+00  0.00000000E+00
