Au Pd                                   
   1.00000000000000     
    11.0025815152626798    0.0000000000000000    0.0000000000000000
     5.5012907576313399    9.5285150994265617    0.0000000000000000
     0.0000000000000000    0.0000000000000000   24.4917850942952882
   Au   Pd
    24    24
Selective dynamics
Direct
  0.0833333333333357  0.0833333333333357  0.4083001692812189   F   F   F
  0.0833333333333357  0.5833333333333357  0.4083001692812189   F   F   F
  0.6654823075487074  0.4162051100282740  0.5091343681370500   T   T   T
 -0.0020881216371432  0.5051107826080682  0.6103308952153340   T   T   T
  0.9161111272546222  0.4178048375152945  0.5074031888517219   T   T   T
  0.0833333333333357  0.8333333333333357  0.4083001692812189   F   F   F
  0.0833333333333357  0.3333333333333357  0.4083001692812189   F   F   F
 -0.0005224640808223 -0.0032070045983017  0.6089311107394169   T   T   T
  0.8333333333333357  0.8333333333333357  0.4083001692812189   F   F   F
  0.7486283976343451  0.2505087712212015  0.6115010169033105   T   T   T
  0.3333333333333357  0.3333333333333357  0.4083001692812189   F   F   F
  0.2518354042256409 -0.0018867733031338  0.6091958279387376   T   T   T
 -0.0010609466981432  0.2511620979390705  0.6104857768697866   T   T   T
  0.2503108714758468  0.2516098482664968  0.6115422577229565   T   T   T
  0.3333333333333357  0.5833333333333357  0.4083001692812189   F   F   F
  0.3333333333333357  0.8333333333333357  0.4083001692812189   F   F   F
  0.8333333333333357  0.0833333333333357  0.4083001692812189   F   F   F
  0.5019177333996649  0.7484591287213321  0.6079874552470574   T   T   T
  0.5833333333333357  0.0833333333333357  0.4083001692812189   F   F   F
  0.4157184659902734  0.1651269190107737  0.5090755281235416   T   T   T
  0.5833333333333357  0.3333333333333357  0.4083001692812189   F   F   F
  0.5833333333333357  0.8333333333333357  0.4083001692812189   F   F   F
  0.5000192806070373  0.2509622400085830  0.6105821964601260   T   T   T
  0.5833333333333357  0.5833333333333357  0.4083001692812189   F   F   F
  0.2496640272586863  0.5034215119785204  0.6044423459352858   T   T   T
  0.1662394734704021  0.6665183308944155  0.5080494330609511   T   T   T
  0.1659217521342750  0.4180321952825275  0.5094758722037483   T   T   T
  0.1666078579053333  0.1648174435339793  0.5085078761059216   T   T   T
  0.9171571434252768  0.1645530991317110  0.5086885927338848   T   T   T
  0.0002442936407081  0.7499236840510806  0.6034363946907454   T   T   T
  0.9163707525108920  0.9167488316737140  0.5088066656380068   T   T   T
  0.9163071507765300  0.6677586801040695  0.5077240872667944   T   T   T
  0.1664334826474054  0.9165937272519923  0.5089187059487966   T   T   T
  0.3333333333333357  0.0833333333333357  0.4083001692812189   F   F   F
  0.6676862224919339  0.9149032271528841  0.5082745298967768   T   T   T
  0.6679078859179266  0.1643698426711567  0.5096848198846886   T   T   T
  0.4148057065575448  0.4173400760048591  0.5092212423795481   T   T   T
  0.2496476503509812  0.7476875387320679  0.6038698918262860   T   T   T
  0.4984391740444788  0.5016352427423000  0.6054438037178158   T   T   T
  0.8333333333333357  0.5833333333333357  0.4083001692812189   F   F   F
  0.8333333333333357  0.3333333333333357  0.4083001692812189   F   F   F
  0.6654190473857426  0.6696191736190459  0.5076940532751033   T   T   T
  0.7495227260215682 -0.0026788852219870  0.6047341273786341   T   T   T
  0.7489351357500180  0.5019964708021231  0.6053086005031025   T   T   T
  0.4159170141326244  0.9153214085130399  0.5081769864368084   T   T   T
  0.4146796331767958  0.6677455373463536  0.5087661258358595   T   T   T
  0.5026122199257972 -0.0011891467450030  0.6053414958985213   T   T   T
  0.7498297582287511  0.7522337963170935  0.6038725511011560   T   T   T
 
  0.00000000E+00  0.00000000E+00  0.00000000E+00
  0.00000000E+00  0.00000000E+00  0.00000000E+00
  0.00000000E+00  0.00000000E+00  0.00000000E+00
  0.00000000E+00  0.00000000E+00  0.00000000E+00
  0.00000000E+00  0.00000000E+00  0.00000000E+00
  0.00000000E+00  0.00000000E+00  0.00000000E+00
  0.00000000E+00  0.00000000E+00  0.00000000E+00
  0.00000000E+00  0.00000000E+00  0.00000000E+00
  0.00000000E+00  0.00000000E+00  0.00000000E+00
  0.00000000E+00  0.00000000E+00  0.00000000E+00
  0.00000000E+00  0.00000000E+00  0.00000000E+00
  0.00000000E+00  0.00000000E+00  0.00000000E+00
  0.00000000E+00  0.00000000E+00  0.00000000E+00
  0.00000000E+00  0.00000000E+00  0.00000000E+00
  0.00000000E+00  0.00000000E+00  0.00000000E+00
  0.00000000E+00  0.00000000E+00  0.00000000E+00
  0.00000000E+00  0.00000000E+00  0.00000000E+00
  0.00000000E+00  0.00000000E+00  0.00000000E+00
  0.00000000E+00  0.00000000E+00  0.00000000E+00
  0.00000000E+00  0.00000000E+00  0.00000000E+00
  0.00000000E+00  0.00000000E+00  0.00000000E+00
  0.00000000E+00  0.00000000E+00  0.00000000E+00
  0.00000000E+00  0.00000000E+00  0.00000000E+00
  0.00000000E+00  0.00000000E+00  0.00000000E+00
  0.00000000E+00  0.00000000E+00  0.00000000E+00
  0.00000000E+00  0.00000000E+00  0.00000000E+00
  0.00000000E+00  0.00000000E+00  0.00000000E+00
  0.00000000E+00  0.00000000E+00  0.00000000E+00
  0.00000000E+00  0.00000000E+00  0.00000000E+00
  0.00000000E+00  0.00000000E+00  0.00000000E+00
  0.00000000E+00  0.00000000E+00  0.00000000E+00
  0.00000000E+00  0.00000000E+00  0.00000000E+00
  0.00000000E+00  0.00000000E+00  0.00000000E+00
  0.00000000E+00  0.00000000E+00  0.00000000E+00
  0.00000000E+00  0.00000000E+00  0.00000000E+00
  0.00000000E+00  0.00000000E+00  0.00000000E+00
  0.00000000E+00  0.00000000E+00  0.00000000E+00
  0.00000000E+00  0.00000000E+00  0.00000000E+00
  0.00000000E+00  0.00000000E+00  0.00000000E+00
  0.00000000E+00  0.00000000E+00  0.00000000E+00
  0.00000000E+00  0.00000000E+00  0.00000000E+00
  0.00000000E+00  0.00000000E+00  0.00000000E+00
  0.00000000E+00  0.00000000E+00  0.00000000E+00
  0.00000000E+00  0.00000000E+00  0.00000000E+00
  0.00000000E+00  0.00000000E+00  0.00000000E+00
  0.00000000E+00  0.00000000E+00  0.00000000E+00
  0.00000000E+00  0.00000000E+00  0.00000000E+00
  0.00000000E+00  0.00000000E+00  0.00000000E+00
