Au  O Pd                                
   1.00000000000000     
    11.0025815152626798    0.0000000000000000    0.0000000000000000
     5.5012907576313399    9.5285150994265617    0.0000000000000000
     0.0000000000000000    0.0000000000000000   26.1917850942952910
   Au   O    Pd
    24     8    24
Selective dynamics
Direct
  0.0833333333333357  0.0833333333333357  0.3817991009012260   F   F   F
  0.9171629806957505  0.6646538106495680  0.4727622190774401   T   T   T
  0.0833333333333357  0.8333333333333357  0.3817991009012260   F   F   F
 -0.0019884419234737  0.4928409198120571  0.5672714154732122   T   T   T
  0.0061314565412170  0.2395445856113299  0.5787835113997464   T   T   T
  0.0833333333333357  0.3333333333333357  0.3817991009012260   F   F   F
  0.9159288853542327  0.1631522346332097  0.4868239838746212   T   T   T
 -0.0047716576567393  0.7630484739060288  0.5665397932705568   T   T   T
  0.8333333333333357  0.5833333333333357  0.3817991009012260   F   F   F
  0.3333333333333357  0.0833333333333357  0.3817991009012260   F   F   F
  0.1672465576838278  0.1641198800401110  0.4825817712487877   T   T   T
  0.1700726537417417  0.6636373632552623  0.4723647776265801   T   T   T
  0.2837663239305295  0.9620342717236375  0.6324487569126569   T   T   T
  0.4192021442136420  0.1650797589425063  0.4774726815282037   T   T   T
  0.5833333333333357  0.3333333333333357  0.3817991009012260   F   F   F
  0.5833333333333357  0.5833333333333357  0.3817991009012260   F   F   F
  0.7407926685553892  0.5125569619648142  0.5666520603501547   T   T   T
  0.4201028157083236  0.9147093734781651  0.4733588431809970   T   T   T
  0.4885908128371844  0.7713061956987577  0.5653052112019999   T   T   T
  0.8333333333333357  0.0833333333333357  0.3817991009012260   F   F   F
  0.6670757201594063  0.1654180737139726  0.4753621258642977   T   T   T
  0.6687171288712569  0.4150855266439211  0.4752525149577626   T   T   T
  0.7539575770076314  0.2796597248389883  0.6010115468165377   T   T   T
  0.1672084416777226  0.9162886558428490  0.4780073403839779   T   T   T
  0.0619088781135044  0.1061086901087379  0.6432190416324564   T   T   T
  0.7112295151087117  0.7948741222566689  0.6344139461320506   T   T   T
  0.5928631357320466  0.0932761835208380  0.6129465868754281   T   T   T
  0.2256511709713223  0.8138673905376428  0.6381793352092610   T   T   T
  0.1018754701117963  0.5764191332836938  0.6127040255280368   T   T   T
  0.8291621645963618  0.0699283035729513  0.6223418640482619   T   T   T
  0.5364323544003187  0.3692206847807185  0.6161263386447910   T   T   T
  0.3350634472703347  0.1108661648495013  0.6289177343073412   T   T   T
  0.2536619932144441  0.2425737371401218  0.5684932374092376   T   T   T
  0.2537676792677948  0.4990789452251806  0.5609764415947954   T   T   T
  0.6674898283826413  0.6672203987372387  0.4740513740666521   T   T   T
  0.2524914559870448  0.7537711637085228  0.5645821787191877   T   T   T
  0.7471305355537695  0.7570821425336222  0.5627437008645888   T   T   T
  0.5833333333333357  0.0833333333333357  0.3817991009012260   F   F   F
  0.1691410874715587  0.4121115969597100  0.4737560930742130   T   T   T
  0.5309399584413141  0.9569091843355602  0.6269105455017813   T   T   T
  0.4161354030197968  0.4160054707716462  0.4736376131406215   T   T   T
  0.4888358282877397  0.2583656681488959  0.5667934590695878   T   T   T
  0.8333333333333357  0.8333333333333357  0.3817991009012260   F   F   F
  0.0833333333333357  0.5833333333333357  0.3817991009012260   F   F   F
  0.4947083564985161  0.5117511001419340  0.5624751975650153   T   T   T
  0.9196799379042168  0.4102385305046342  0.4789041174879109   T   T   T
  0.9172339295647216  0.9154132492041450  0.4761626467598265   T   T   T
  0.0239145866705920  0.9455648403859785  0.6263894472311140   T   T   T
  0.8333333333333357  0.3333333333333357  0.3817991009012260   F   F   F
  0.7547600786408906  0.0037186717986815  0.5632854740574104   T   T   T
  0.6685777904337064  0.9163180545767441  0.4741091910543792   T   T   T
  0.3333333333333357  0.5833333333333357  0.3817991009012260   F   F   F
  0.3333333333333357  0.3333333333333357  0.3817991009012260   F   F   F
  0.5833333333333357  0.8333333333333357  0.3817991009012260   F   F   F
  0.4185444552307437  0.6656922546740149  0.4746936616474156   T   T   T
  0.3333333333333357  0.8333333333333357  0.3817991009012260   F   F   F
 
  0.00000000E+00  0.00000000E+00  0.00000000E+00
  0.00000000E+00  0.00000000E+00  0.00000000E+00
  0.00000000E+00  0.00000000E+00  0.00000000E+00
  0.00000000E+00  0.00000000E+00  0.00000000E+00
  0.00000000E+00  0.00000000E+00  0.00000000E+00
  0.00000000E+00  0.00000000E+00  0.00000000E+00
  0.00000000E+00  0.00000000E+00  0.00000000E+00
  0.00000000E+00  0.00000000E+00  0.00000000E+00
  0.00000000E+00  0.00000000E+00  0.00000000E+00
  0.00000000E+00  0.00000000E+00  0.00000000E+00
  0.00000000E+00  0.00000000E+00  0.00000000E+00
  0.00000000E+00  0.00000000E+00  0.00000000E+00
  0.00000000E+00  0.00000000E+00  0.00000000E+00
  0.00000000E+00  0.00000000E+00  0.00000000E+00
  0.00000000E+00  0.00000000E+00  0.00000000E+00
  0.00000000E+00  0.00000000E+00  0.00000000E+00
  0.00000000E+00  0.00000000E+00  0.00000000E+00
  0.00000000E+00  0.00000000E+00  0.00000000E+00
  0.00000000E+00  0.00000000E+00  0.00000000E+00
  0.00000000E+00  0.00000000E+00  0.00000000E+00
  0.00000000E+00  0.00000000E+00  0.00000000E+00
  0.00000000E+00  0.00000000E+00  0.00000000E+00
  0.00000000E+00  0.00000000E+00  0.00000000E+00
  0.00000000E+00  0.00000000E+00  0.00000000E+00
  0.00000000E+00  0.00000000E+00  0.00000000E+00
  0.00000000E+00  0.00000000E+00  0.00000000E+00
  0.00000000E+00  0.00000000E+00  0.00000000E+00
  0.00000000E+00  0.00000000E+00  0.00000000E+00
  0.00000000E+00  0.00000000E+00  0.00000000E+00
  0.00000000E+00  0.00000000E+00  0.00000000E+00
  0.00000000E+00  0.00000000E+00  0.00000000E+00
  0.00000000E+00  0.00000000E+00  0.00000000E+00
  0.00000000E+00  0.00000000E+00  0.00000000E+00
  0.00000000E+00  0.00000000E+00  0.00000000E+00
  0.00000000E+00  0.00000000E+00  0.00000000E+00
  0.00000000E+00  0.00000000E+00  0.00000000E+00
  0.00000000E+00  0.00000000E+00  0.00000000E+00
  0.00000000E+00  0.00000000E+00  0.00000000E+00
  0.00000000E+00  0.00000000E+00  0.00000000E+00
  0.00000000E+00  0.00000000E+00  0.00000000E+00
  0.00000000E+00  0.00000000E+00  0.00000000E+00
  0.00000000E+00  0.00000000E+00  0.00000000E+00
  0.00000000E+00  0.00000000E+00  0.00000000E+00
  0.00000000E+00  0.00000000E+00  0.00000000E+00
  0.00000000E+00  0.00000000E+00  0.00000000E+00
  0.00000000E+00  0.00000000E+00  0.00000000E+00
  0.00000000E+00  0.00000000E+00  0.00000000E+00
  0.00000000E+00  0.00000000E+00  0.00000000E+00
  0.00000000E+00  0.00000000E+00  0.00000000E+00
  0.00000000E+00  0.00000000E+00  0.00000000E+00
  0.00000000E+00  0.00000000E+00  0.00000000E+00
  0.00000000E+00  0.00000000E+00  0.00000000E+00
  0.00000000E+00  0.00000000E+00  0.00000000E+00
  0.00000000E+00  0.00000000E+00  0.00000000E+00
  0.00000000E+00  0.00000000E+00  0.00000000E+00
  0.00000000E+00  0.00000000E+00  0.00000000E+00
