Au  O Pd                                
   1.00000000000000     
    11.0025815152626798    0.0000000000000000    0.0000000000000000
     5.5012907576313399    9.5285150994265617    0.0000000000000000
     0.0000000000000000    0.0000000000000000   26.1917850942952910
   Au   O    Pd
    24     8    24
Selective dynamics
Direct
  0.0833333333333357  0.0833333333333357  0.3817991009012260   F   F   F
  0.9154128229867059  0.6690645529604444  0.4741996511504906   T   T   T
  0.0833333333333357  0.8333333333333357  0.3817991009012260   F   F   F
 -0.0016261378513919  0.4964701742228222  0.5704429043545058   T   T   T
 -0.0033176915510387  0.2599595199340261  0.5747108390986511   T   T   T
  0.0833333333333357  0.3333333333333357  0.3817991009012260   F   F   F
  0.9149557561743999  0.1663235154080815  0.4821552436092909   T   T   T
 -0.0025305158983443  0.7478730791041273  0.5684923483889858   T   T   T
  0.8333333333333357  0.5833333333333357  0.3817991009012260   F   F   F
  0.3333333333333357  0.0833333333333357  0.3817991009012260   F   F   F
  0.1659204227802621  0.1679635963638170  0.4783951743580847   T   T   T
  0.1682641959062195  0.6658567292277163  0.4709676930233761   T   T   T
  0.2607158196590774 -0.0206001547365336  0.5837135236455810   T   T   T
  0.4186987033176114  0.1682248573953789  0.4768700289477111   T   T   T
  0.5833333333333357  0.3333333333333357  0.3817991009012260   F   F   F
  0.5833333333333357  0.5833333333333357  0.3817991009012260   F   F   F
  0.7478282491315299  0.5036607238524591  0.5653927954990233   T   T   T
  0.4201742274928829  0.9158129759061510  0.4764657449127822   T   T   T
  0.5004334206209916  0.7420930895087682  0.5669963611542899   T   T   T
  0.8333333333333357  0.0833333333333357  0.3817991009012260   F   F   F
  0.6663420884321617  0.1648871409870889  0.4795984302153158   T   T   T
  0.6684697626237003  0.4161943781842409  0.4742980411377689   T   T   T
  0.7471711306284048  0.2601467726248821  0.5811232514587623   T   T   T
  0.1674538490009997  0.9171866825767929  0.4773460194579784   T   T   T
  0.0756617670412196  0.0908047540162096  0.6255312790292226   T   T   T
  0.6095515136454400  0.8083249638596950  0.6158817618843734   T   T   T
  0.5857015003242328  0.0858484031909315  0.6158517818457203   T   T   T
  0.1231955512357540  0.8129908706786173  0.6184086451933949   T   T   T
  0.1192164260949550  0.5528115103176120  0.6165550235527013   T   T   T
  0.8336695501259136  0.0660089050504101  0.6206258541487271   T   T   T
  0.5465110964539673  0.3728603782022000  0.6193156987194576   T   T   T
  0.3182724539152266  0.1151461940121590  0.6179830930579873   T   T   T
  0.2463497356709127  0.2568787668262210  0.5641136430431465   T   T   T
  0.2549234287437737  0.4994316712105165  0.5591545646058005   T   T   T
  0.6672078187909805  0.6685094272946680  0.4720445652565814   T   T   T
  0.2580196947603076  0.7429322990445358  0.5630973083466494   T   T   T
  0.7539692932506490  0.7473024371701065  0.5628095778987885   T   T   T
  0.5833333333333357  0.0833333333333357  0.3817991009012260   F   F   F
  0.1674404518230908  0.4175314074612363  0.4729217943994470   T   T   T
  0.4976233977170291 -0.0021284700833943  0.5779049499355026   T   T   T
  0.4163843128495092  0.4172553815480677  0.4732989261051276   T   T   T
  0.4798923888450327  0.2640563487782410  0.5787651943543731   T   T   T
  0.8333333333333357  0.8333333333333357  0.3817991009012260   F   F   F
  0.0833333333333357  0.5833333333333357  0.3817991009012260   F   F   F
  0.4966380056254476  0.5036942052591954  0.5615421050677156   T   T   T
  0.9198627299711656  0.4156479230499580  0.4785921580941143   T   T   T
  0.9157533359230493  0.9166787579892743  0.4790989951406942   T   T   T
  0.0027488403906508 -0.0067282742468482  0.5784219022047483   T   T   T
  0.8333333333333357  0.3333333333333357  0.3817991009012260   F   F   F
  0.7510102340215016 -0.0085421511820524  0.5709862742776552   T   T   T
  0.6666394427268049  0.9181811370113108  0.4736706790078438   T   T   T
  0.3333333333333357  0.5833333333333357  0.3817991009012260   F   F   F
  0.3333333333333357  0.3333333333333357  0.3817991009012260   F   F   F
  0.5833333333333357  0.8333333333333357  0.3817991009012260   F   F   F
  0.4182740163492865  0.6661547013202959  0.4758831071033975   T   T   T
  0.3333333333333357  0.8333333333333357  0.3817991009012260   F   F   F
 
  0.00000000E+00  0.00000000E+00  0.00000000E+00
  0.00000000E+00  0.00000000E+00  0.00000000E+00
  0.00000000E+00  0.00000000E+00  0.00000000E+00
  0.00000000E+00  0.00000000E+00  0.00000000E+00
  0.00000000E+00  0.00000000E+00  0.00000000E+00
  0.00000000E+00  0.00000000E+00  0.00000000E+00
  0.00000000E+00  0.00000000E+00  0.00000000E+00
  0.00000000E+00  0.00000000E+00  0.00000000E+00
  0.00000000E+00  0.00000000E+00  0.00000000E+00
  0.00000000E+00  0.00000000E+00  0.00000000E+00
  0.00000000E+00  0.00000000E+00  0.00000000E+00
  0.00000000E+00  0.00000000E+00  0.00000000E+00
  0.00000000E+00  0.00000000E+00  0.00000000E+00
  0.00000000E+00  0.00000000E+00  0.00000000E+00
  0.00000000E+00  0.00000000E+00  0.00000000E+00
  0.00000000E+00  0.00000000E+00  0.00000000E+00
  0.00000000E+00  0.00000000E+00  0.00000000E+00
  0.00000000E+00  0.00000000E+00  0.00000000E+00
  0.00000000E+00  0.00000000E+00  0.00000000E+00
  0.00000000E+00  0.00000000E+00  0.00000000E+00
  0.00000000E+00  0.00000000E+00  0.00000000E+00
  0.00000000E+00  0.00000000E+00  0.00000000E+00
  0.00000000E+00  0.00000000E+00  0.00000000E+00
  0.00000000E+00  0.00000000E+00  0.00000000E+00
  0.00000000E+00  0.00000000E+00  0.00000000E+00
  0.00000000E+00  0.00000000E+00  0.00000000E+00
  0.00000000E+00  0.00000000E+00  0.00000000E+00
  0.00000000E+00  0.00000000E+00  0.00000000E+00
  0.00000000E+00  0.00000000E+00  0.00000000E+00
  0.00000000E+00  0.00000000E+00  0.00000000E+00
  0.00000000E+00  0.00000000E+00  0.00000000E+00
  0.00000000E+00  0.00000000E+00  0.00000000E+00
  0.00000000E+00  0.00000000E+00  0.00000000E+00
  0.00000000E+00  0.00000000E+00  0.00000000E+00
  0.00000000E+00  0.00000000E+00  0.00000000E+00
  0.00000000E+00  0.00000000E+00  0.00000000E+00
  0.00000000E+00  0.00000000E+00  0.00000000E+00
  0.00000000E+00  0.00000000E+00  0.00000000E+00
  0.00000000E+00  0.00000000E+00  0.00000000E+00
  0.00000000E+00  0.00000000E+00  0.00000000E+00
  0.00000000E+00  0.00000000E+00  0.00000000E+00
  0.00000000E+00  0.00000000E+00  0.00000000E+00
  0.00000000E+00  0.00000000E+00  0.00000000E+00
  0.00000000E+00  0.00000000E+00  0.00000000E+00
  0.00000000E+00  0.00000000E+00  0.00000000E+00
  0.00000000E+00  0.00000000E+00  0.00000000E+00
  0.00000000E+00  0.00000000E+00  0.00000000E+00
  0.00000000E+00  0.00000000E+00  0.00000000E+00
  0.00000000E+00  0.00000000E+00  0.00000000E+00
  0.00000000E+00  0.00000000E+00  0.00000000E+00
  0.00000000E+00  0.00000000E+00  0.00000000E+00
  0.00000000E+00  0.00000000E+00  0.00000000E+00
  0.00000000E+00  0.00000000E+00  0.00000000E+00
  0.00000000E+00  0.00000000E+00  0.00000000E+00
  0.00000000E+00  0.00000000E+00  0.00000000E+00
  0.00000000E+00  0.00000000E+00  0.00000000E+00
