Au Pd                                   
   1.00000000000000     
    11.0025815152626798    0.0000000000000000    0.0000000000000000
     5.5012907576313399    9.5285150994265617    0.0000000000000000
     0.0000000000000000    0.0000000000000000   24.4917850942952882
   Au   Pd
    24    24
Selective dynamics
Direct
  0.0833333333333357  0.0833333333333357  0.4083001692812189   F   F   F
  0.1642855238460342  0.1647320237070279  0.5099774264254602   T   T   T
  0.9162426825892742  0.9185848896499617  0.5106660251376101   T   T   T
  0.3333333333333357  0.0833333333333357  0.4083001692812189   F   F   F
  0.0833333333333357  0.8333333333333357  0.4083001692812189   F   F   F
  0.9148559896235355  0.6668189595081421  0.5113765556143214   T   T   T
  0.0833333333333357  0.5833333333333357  0.4083001692812189   F   F   F
  0.7517663703864790  0.7474543366086546  0.6149800571829946   T   T   T
  0.1671071074357973  0.4150639573260954  0.5089703123026984   T   T   T
  0.3333333333333357  0.5833333333333357  0.4083001692812189   F   F   F
  0.1689850708543047  0.6675591116346571  0.5123345295994416   T   T   T
  0.6663582143598163  0.9147770531534729  0.5088224861747451   T   T   T
  0.9136155671155949  0.4146932238645589  0.5080931003385230   T   T   T
  0.4179156979554116  0.1660611862760793  0.5110521272062002   T   T   T
  0.4207314724390941  0.4147521759272026  0.5081842870610564   T   T   T
  0.4989887309503234  0.2500241417534266  0.6145401727407798   T   T   T
  0.5833333333333357  0.5833333333333357  0.4083001692812189   F   F   F
  0.5006989014210822  0.4999191692351096  0.6103472439178185   T   T   T
  0.4167116366541246  0.9118158024815753  0.5084448206841511   T   T   T
  0.4987895741538805  0.7508187099728811  0.6115363914444957   T   T   T
  0.8333333333333357  0.0833333333333357  0.4083001692812189   F   F   F
  0.7518846246648581  0.0004282922721471  0.6138261392923736   T   T   T
  0.8333333333333357  0.5833333333333357  0.4083001692812189   F   F   F
  0.5833333333333357  0.0833333333333357  0.4083001692812189   F   F   F
  0.4182612505445288  0.6654274453838712  0.5092344303662487   T   T   T
  0.0017382486547953  0.4976779028067895  0.6073181818943943   T   T   T
  0.5833333333333357  0.3333333333333357  0.4083001692812189   F   F   F
  0.4989554564399574  0.0000924516559327  0.6080546171911967   T   T   T
  0.2483257768708093  0.0015513161047310  0.6067207392471037   T   T   T
  0.1673157029577944  0.9154230967828685  0.5088544561696654   T   T   T
  0.3333333333333357  0.8333333333333357  0.4083001692812189   F   F   F
  0.2485629561738389  0.4997627180469597  0.6079249689770732   T   T   T
  0.3333333333333357  0.3333333333333357  0.4083001692812189   F   F   F
  0.0020504449680395  0.7491411259625117  0.6092644302147909   T   T   T
  0.5833333333333357  0.8333333333333357  0.4083001692812189   F   F   F
  0.0019542711797684  0.0007935926963958  0.6058463000028157   T   T   T
  0.6653453852545620  0.6646858937063252  0.5091176448000362   T   T   T
  0.6679780823256092  0.1673207180969183  0.5091779959877299   T   T   T
  0.8333333333333357  0.8333333333333357  0.4083001692812189   F   F   F
  0.8333333333333357  0.3333333333333357  0.4083001692812189   F   F   F
  0.6664448458021235  0.4156399942653160  0.5071980079277700   T   T   T
  0.0833333333333357  0.3333333333333357  0.4083001692812189   F   F   F
  0.7518350443410244  0.2494701059615091  0.6041119824165752   T   T   T
  0.7522766640234969  0.4976475814389912  0.6054025580912029   T   T   T
  0.9144168828389152  0.1667542987653635  0.5080488014892215   T   T   T
 -0.0013582151105891  0.2499833225872171  0.6063129440127992   T   T   T
  0.2486778557955129  0.2496027616291104  0.6080766932321231   T   T   T
  0.2482290091047241  0.7526179245074821  0.6071564250108484   T   T   T
 
  0.00000000E+00  0.00000000E+00  0.00000000E+00
  0.00000000E+00  0.00000000E+00  0.00000000E+00
  0.00000000E+00  0.00000000E+00  0.00000000E+00
  0.00000000E+00  0.00000000E+00  0.00000000E+00
  0.00000000E+00  0.00000000E+00  0.00000000E+00
  0.00000000E+00  0.00000000E+00  0.00000000E+00
  0.00000000E+00  0.00000000E+00  0.00000000E+00
  0.00000000E+00  0.00000000E+00  0.00000000E+00
  0.00000000E+00  0.00000000E+00  0.00000000E+00
  0.00000000E+00  0.00000000E+00  0.00000000E+00
  0.00000000E+00  0.00000000E+00  0.00000000E+00
  0.00000000E+00  0.00000000E+00  0.00000000E+00
  0.00000000E+00  0.00000000E+00  0.00000000E+00
  0.00000000E+00  0.00000000E+00  0.00000000E+00
  0.00000000E+00  0.00000000E+00  0.00000000E+00
  0.00000000E+00  0.00000000E+00  0.00000000E+00
  0.00000000E+00  0.00000000E+00  0.00000000E+00
  0.00000000E+00  0.00000000E+00  0.00000000E+00
  0.00000000E+00  0.00000000E+00  0.00000000E+00
  0.00000000E+00  0.00000000E+00  0.00000000E+00
  0.00000000E+00  0.00000000E+00  0.00000000E+00
  0.00000000E+00  0.00000000E+00  0.00000000E+00
  0.00000000E+00  0.00000000E+00  0.00000000E+00
  0.00000000E+00  0.00000000E+00  0.00000000E+00
  0.00000000E+00  0.00000000E+00  0.00000000E+00
  0.00000000E+00  0.00000000E+00  0.00000000E+00
  0.00000000E+00  0.00000000E+00  0.00000000E+00
  0.00000000E+00  0.00000000E+00  0.00000000E+00
  0.00000000E+00  0.00000000E+00  0.00000000E+00
  0.00000000E+00  0.00000000E+00  0.00000000E+00
  0.00000000E+00  0.00000000E+00  0.00000000E+00
  0.00000000E+00  0.00000000E+00  0.00000000E+00
  0.00000000E+00  0.00000000E+00  0.00000000E+00
  0.00000000E+00  0.00000000E+00  0.00000000E+00
  0.00000000E+00  0.00000000E+00  0.00000000E+00
  0.00000000E+00  0.00000000E+00  0.00000000E+00
  0.00000000E+00  0.00000000E+00  0.00000000E+00
  0.00000000E+00  0.00000000E+00  0.00000000E+00
  0.00000000E+00  0.00000000E+00  0.00000000E+00
  0.00000000E+00  0.00000000E+00  0.00000000E+00
  0.00000000E+00  0.00000000E+00  0.00000000E+00
  0.00000000E+00  0.00000000E+00  0.00000000E+00
  0.00000000E+00  0.00000000E+00  0.00000000E+00
  0.00000000E+00  0.00000000E+00  0.00000000E+00
  0.00000000E+00  0.00000000E+00  0.00000000E+00
  0.00000000E+00  0.00000000E+00  0.00000000E+00
  0.00000000E+00  0.00000000E+00  0.00000000E+00
  0.00000000E+00  0.00000000E+00  0.00000000E+00
