Au Pd                                   
   1.00000000000000     
    11.0025815152626798    0.0000000000000000    0.0000000000000000
     5.5012907576313399    9.5285150994265617    0.0000000000000000
     0.0000000000000000    0.0000000000000000   24.4917850942952882
   Au   Pd
    24    24
Direct
  0.2471183794223019  0.7525488365086660  0.6074835598509147
  0.8321940307001724  0.8357943176979802  0.3921913538485939
  0.7493775409165010  0.4989057753889790  0.6017476314590007
  0.8309017760847971  0.5839688274351423  0.3945024363363406
  0.8302178432490362  0.3338175129623768  0.3932880110073480
  0.6636349037426821  0.1680863973960351  0.4979893434651099
  0.8323275608433165  0.0843344656306068  0.3906057312820001
  0.4193058331172748  0.9161168085250023  0.5016138671457633
  0.5793927728467385  0.8351459811443378  0.3972031167683667
  0.5018284145164352  0.4969855240362810  0.6053726599140764
  0.4195145534082060  0.6646911561281522  0.5031643727503775
  0.2511622045638637  0.4991382403254196  0.6042539693148558
  0.1687654881099918  0.6655067655558763  0.5006627571769550
  0.2528396794666860  0.2474274382052026  0.6032174182785748
  0.7474195777795573  0.7535891862724836  0.5997104006151790
  0.9166020632482733  0.9173035630150335  0.4978213590584267
  0.0001972539514139  0.4997364549289810  0.6030852414429329
  0.9163253975463723  0.6668052107817645  0.4979949541824237
  0.0877541305638388  0.5826589278300380  0.3948833225600905
  0.0866466719852374  0.3308421769940967  0.3951028885774082
  0.9160883517596430  0.4173316704214244  0.4985711527420695
  0.1687247081561708  0.1662186902903383  0.5000360199432448
  0.9167516102838055  0.1662438256172623  0.4978615036598378
  0.2489841616129782  0.0000430504146551  0.6067490935603596
  0.7512795472458884  0.2475328307471144  0.5954099598948583
  0.6659921691368245  0.4171852765263453  0.5002186312224504
  0.0844703247649545  0.8342955657950512  0.4024421569873222
  0.7497769220267502  0.0008071668936219  0.5943675776138466
 -0.0007088881274649  0.2485018492408543  0.5967653585734752
 -0.0019443507395053  0.0010661396851059  0.5974759938492200
  0.4996647225288289  0.7507791613905758  0.5999918196880739
  0.6675432578157704  0.6662625610397928  0.4997205091547664
  0.3341672398348040  0.3332742164756557  0.4059001964582660
  0.5033568626971285  0.2463427245108167  0.5969049267767558
  0.4175303198979468  0.4155956536712052  0.5023921258016997
  0.5798742341580990  0.3353571609882482  0.4030898588207154
  0.5010227716417869 -0.0002573051832160  0.5974647551127378
  0.4168061977462792  0.1675674974693240  0.5011224248613413
  0.5798786888411389  0.0863898567041439  0.4018966695069927
  0.6657496032427084  0.9169373983797895  0.4974698421989058
  0.1682135582596077  0.9159408759377773  0.5027167131098544
  0.3301618057018826  0.8340606696010604  0.4056074508587323
 -0.0014644402415200  0.7520866942582304  0.5965621926882974
  0.3334265399743204  0.0839332542797626  0.4037475822929831
  0.3352813337998342  0.5830628177544627  0.4054748652176889
  0.1698814901657638  0.4155695556704873  0.5010662958498484
  0.5811308445431970  0.5830934501464919  0.4048128969481334
  0.0848343372096832  0.0813741245111637  0.4022670315727847
 
  0.00000000E+00  0.00000000E+00  0.00000000E+00
  0.00000000E+00  0.00000000E+00  0.00000000E+00
  0.00000000E+00  0.00000000E+00  0.00000000E+00
  0.00000000E+00  0.00000000E+00  0.00000000E+00
  0.00000000E+00  0.00000000E+00  0.00000000E+00
  0.00000000E+00  0.00000000E+00  0.00000000E+00
  0.00000000E+00  0.00000000E+00  0.00000000E+00
  0.00000000E+00  0.00000000E+00  0.00000000E+00
  0.00000000E+00  0.00000000E+00  0.00000000E+00
  0.00000000E+00  0.00000000E+00  0.00000000E+00
  0.00000000E+00  0.00000000E+00  0.00000000E+00
  0.00000000E+00  0.00000000E+00  0.00000000E+00
  0.00000000E+00  0.00000000E+00  0.00000000E+00
  0.00000000E+00  0.00000000E+00  0.00000000E+00
  0.00000000E+00  0.00000000E+00  0.00000000E+00
  0.00000000E+00  0.00000000E+00  0.00000000E+00
  0.00000000E+00  0.00000000E+00  0.00000000E+00
  0.00000000E+00  0.00000000E+00  0.00000000E+00
  0.00000000E+00  0.00000000E+00  0.00000000E+00
  0.00000000E+00  0.00000000E+00  0.00000000E+00
  0.00000000E+00  0.00000000E+00  0.00000000E+00
  0.00000000E+00  0.00000000E+00  0.00000000E+00
  0.00000000E+00  0.00000000E+00  0.00000000E+00
  0.00000000E+00  0.00000000E+00  0.00000000E+00
  0.00000000E+00  0.00000000E+00  0.00000000E+00
  0.00000000E+00  0.00000000E+00  0.00000000E+00
  0.00000000E+00  0.00000000E+00  0.00000000E+00
  0.00000000E+00  0.00000000E+00  0.00000000E+00
  0.00000000E+00  0.00000000E+00  0.00000000E+00
  0.00000000E+00  0.00000000E+00  0.00000000E+00
  0.00000000E+00  0.00000000E+00  0.00000000E+00
  0.00000000E+00  0.00000000E+00  0.00000000E+00
  0.00000000E+00  0.00000000E+00  0.00000000E+00
  0.00000000E+00  0.00000000E+00  0.00000000E+00
  0.00000000E+00  0.00000000E+00  0.00000000E+00
  0.00000000E+00  0.00000000E+00  0.00000000E+00
  0.00000000E+00  0.00000000E+00  0.00000000E+00
  0.00000000E+00  0.00000000E+00  0.00000000E+00
  0.00000000E+00  0.00000000E+00  0.00000000E+00
  0.00000000E+00  0.00000000E+00  0.00000000E+00
  0.00000000E+00  0.00000000E+00  0.00000000E+00
  0.00000000E+00  0.00000000E+00  0.00000000E+00
  0.00000000E+00  0.00000000E+00  0.00000000E+00
  0.00000000E+00  0.00000000E+00  0.00000000E+00
  0.00000000E+00  0.00000000E+00  0.00000000E+00
  0.00000000E+00  0.00000000E+00  0.00000000E+00
  0.00000000E+00  0.00000000E+00  0.00000000E+00
  0.00000000E+00  0.00000000E+00  0.00000000E+00
