Au Pd                                   
   1.00000000000000     
    11.0025815152626798    0.0000000000000000    0.0000000000000000
     5.5012907576313399    9.5285150994265617    0.0000000000000000
     0.0000000000000000    0.0000000000000000   24.4917850942952882
   Au   Pd
    24    24
Direct
  0.0814138925828732  0.0831596816436602  0.3963292570009530
  0.8347943182508623  0.5841564285386522  0.3982798861394256
  0.7542429659364536  0.2468751615294774  0.6060692822465834
  0.6699744639186962  0.4169783257689587  0.5012821438506549
  0.6681319814640089  0.1643156477925081  0.5022949493573772
  0.5019386008056894  0.7511184547989582  0.6035546190439672
  0.4164823381588611  0.9160950484913569  0.4993528128001313
  0.5847338429536785  0.8350970672172832  0.3964609758436771
  0.5009001524349763  0.4994171659234056  0.6084239949292378
  0.4149634667360295  0.6684830028244205  0.5007222895665582
  0.5825541220343409  0.5821294627905119  0.3966038103128563
  0.5016168229776712  0.2467883707761787  0.6090119959118586
  0.4153700426356914  0.4183211656247632  0.5016353093399232
  0.4171851091655835  0.1654928797964820  0.4993230616589979
  0.2497675263083056  0.2482852590612833  0.6045199836014987
  0.1637708415621104  0.4202252942863736  0.4997392541862173
  0.2469365322796630  0.7511507031055471  0.6029238999839958
 -0.0028505401254278  0.5019382846051943  0.6013858146885968
  0.0842800857312797  0.8316638659544696  0.3984543857530632
  0.9173146182310851  0.9146658611454694  0.5006641062526058
  0.3350012571327915  0.0830894921041962  0.3908620532297265
  0.3357246171156057  0.3359867503243089  0.3929248454202402
  0.0826650355720620  0.3345899436046856  0.3953985710397085
  0.1632017753077182  0.1669347521857429  0.4992772460887506
  0.8332408395661327  0.3318791569368512  0.4033112186248004
  0.9169408925915853  0.1666130825074997  0.5005460182863974
  0.7513664420062051 -0.0037899104628671  0.5985725413074642
  0.9166265507595108  0.4176311649866007  0.4991836976229177
  0.6681625744980754  0.6670038993184351  0.4982380677699452
  0.8318067443479202  0.0845569948245914  0.4038719045528095
  0.7507136398925996  0.5003123888550031  0.5965075878700110
  0.8336983765016672  0.8355761125277265  0.4032931376692877
  0.0001668496564876 -0.0011149626454792  0.5972320970024957
 -0.0005374981571824  0.2490434131280112  0.5966256695593117
  0.2480744496998899  0.0007483554512456  0.5966319593741161
  0.9144661653900682  0.6661452457053862  0.4992296211467103
 -0.0010606003556560  0.7502411579380079  0.5963380875074179
  0.5847677667538663  0.3325074868821313  0.4048213481909284
  0.5014179229161670 -0.0008810404605501  0.5968436194213629
  0.5845328470415003  0.0847384980925740  0.4023331114025213
  0.6671652621101363  0.9139700201816607  0.4988521564888397
  0.1640821952119421  0.9168695568404440  0.4997568505282184
  0.3333958264937379  0.8337132371753684  0.4018635504270939
  0.2497708437615827  0.4994285853145580  0.5986313121452576
  0.1645936510373501  0.6684951235886574  0.5007504813360066
  0.3332224187440939  0.5841274456277363  0.4035488437064474
  0.0840644066414702  0.5841318034776177  0.4028535381503121
  0.7492075637202403  0.7510951143149015  0.5946690316627217
 
  0.00000000E+00  0.00000000E+00  0.00000000E+00
  0.00000000E+00  0.00000000E+00  0.00000000E+00
  0.00000000E+00  0.00000000E+00  0.00000000E+00
  0.00000000E+00  0.00000000E+00  0.00000000E+00
  0.00000000E+00  0.00000000E+00  0.00000000E+00
  0.00000000E+00  0.00000000E+00  0.00000000E+00
  0.00000000E+00  0.00000000E+00  0.00000000E+00
  0.00000000E+00  0.00000000E+00  0.00000000E+00
  0.00000000E+00  0.00000000E+00  0.00000000E+00
  0.00000000E+00  0.00000000E+00  0.00000000E+00
  0.00000000E+00  0.00000000E+00  0.00000000E+00
  0.00000000E+00  0.00000000E+00  0.00000000E+00
  0.00000000E+00  0.00000000E+00  0.00000000E+00
  0.00000000E+00  0.00000000E+00  0.00000000E+00
  0.00000000E+00  0.00000000E+00  0.00000000E+00
  0.00000000E+00  0.00000000E+00  0.00000000E+00
  0.00000000E+00  0.00000000E+00  0.00000000E+00
  0.00000000E+00  0.00000000E+00  0.00000000E+00
  0.00000000E+00  0.00000000E+00  0.00000000E+00
  0.00000000E+00  0.00000000E+00  0.00000000E+00
  0.00000000E+00  0.00000000E+00  0.00000000E+00
  0.00000000E+00  0.00000000E+00  0.00000000E+00
  0.00000000E+00  0.00000000E+00  0.00000000E+00
  0.00000000E+00  0.00000000E+00  0.00000000E+00
  0.00000000E+00  0.00000000E+00  0.00000000E+00
  0.00000000E+00  0.00000000E+00  0.00000000E+00
  0.00000000E+00  0.00000000E+00  0.00000000E+00
  0.00000000E+00  0.00000000E+00  0.00000000E+00
  0.00000000E+00  0.00000000E+00  0.00000000E+00
  0.00000000E+00  0.00000000E+00  0.00000000E+00
  0.00000000E+00  0.00000000E+00  0.00000000E+00
  0.00000000E+00  0.00000000E+00  0.00000000E+00
  0.00000000E+00  0.00000000E+00  0.00000000E+00
  0.00000000E+00  0.00000000E+00  0.00000000E+00
  0.00000000E+00  0.00000000E+00  0.00000000E+00
  0.00000000E+00  0.00000000E+00  0.00000000E+00
  0.00000000E+00  0.00000000E+00  0.00000000E+00
  0.00000000E+00  0.00000000E+00  0.00000000E+00
  0.00000000E+00  0.00000000E+00  0.00000000E+00
  0.00000000E+00  0.00000000E+00  0.00000000E+00
  0.00000000E+00  0.00000000E+00  0.00000000E+00
  0.00000000E+00  0.00000000E+00  0.00000000E+00
  0.00000000E+00  0.00000000E+00  0.00000000E+00
  0.00000000E+00  0.00000000E+00  0.00000000E+00
  0.00000000E+00  0.00000000E+00  0.00000000E+00
  0.00000000E+00  0.00000000E+00  0.00000000E+00
  0.00000000E+00  0.00000000E+00  0.00000000E+00
  0.00000000E+00  0.00000000E+00  0.00000000E+00
