Au  O Pd                                
   1.00000000000000     
    11.0025815152626798    0.0000000000000000    0.0000000000000000
     5.5012907576313399    9.5285150994265617    0.0000000000000000
     0.0000000000000000    0.0000000000000000   26.1917850942952910
   Au   O    Pd
    24     8    24
Selective dynamics
Direct
  0.0833333333333357  0.0833333333333357  0.3817991009012260   F   F   F
  0.3333333333333357  0.8333333333333357  0.3817991009012260   F   F   F
  0.6692967904283381  0.1657225083041340  0.4775196380816028   T   T   T
  0.6687777331973913  0.9133715096142639  0.4777718713932353   T   T   T
  0.8333333333333357  0.8333333333333357  0.3817991009012260   F   F   F
  0.0833333333333357  0.3333333333333357  0.3817991009012260   F   F   F
  0.9175543557266563  0.4168777305225601  0.4807121133665721   T   T   T
  0.6649224896938728  0.6696012693019806  0.4829659479484972   T   T   T
  0.8333333333333357  0.5833333333333357  0.3817991009012260   F   F   F
  0.0833333333333357  0.5833333333333357  0.3817991009012260   F   F   F
  0.6632931826749959  0.4203734476839077  0.4813332742876840   T   T   T
  0.8333333333333357  0.0833333333333357  0.3817991009012260   F   F   F
  0.8333333333333357  0.3333333333333357  0.3817991009012260   F   F   F
  0.5833333333333357  0.0833333333333357  0.3817991009012260   F   F   F
  0.4117872062419635  0.9161192982761799  0.4801050924109531   T   T   T
  0.3333333333333357  0.0833333333333357  0.3817991009012260   F   F   F
  0.5833333333333357  0.5833333333333357  0.3817991009012260   F   F   F
  0.5833333333333357  0.3333333333333357  0.3817991009012260   F   F   F
  0.3333333333333357  0.3333333333333357  0.3817991009012260   F   F   F
  0.1658731837612022  0.4221496404066262  0.4807420734431330   T   T   T
  0.2525354395846073  0.2456275487971065  0.5722999562502634   T   T   T
  0.4153253705012951  0.1691122870055533  0.4782550609079319   T   T   T
  0.3333333333333357  0.5833333333333357  0.3817991009012260   F   F   F
  0.0833333333333357  0.8333333333333357  0.3817991009012260   F   F   F
  0.0633317683275510  0.0889432980338540  0.6125442174351389   T   T   T
  0.3260950409781291  0.5864953480405944  0.6156509443807233   T   T   T
  0.0837464865971214  0.5850173491418004  0.6140475264524867   T   T   T
  0.8321137378036045  0.8565758221950295  0.6168199928249701   T   T   T
  0.3323446675522983  0.8410058868077797  0.6173219386702294   T   T   T
  0.8400221514259982  0.5741301613383919  0.6187048418290343   T   T   T
  0.6029276395592515  0.2933924736195541  0.6164483314587224   T   T   T
  0.5897226789354221  0.5822667396311483  0.6172590638462705   T   T   T
  0.1658123572320069  0.1657878139124141  0.4777449779376955   T   T   T
  0.2461256658967081  0.0069063305455190  0.5735359864272556   T   T   T
  0.4995370314240518  0.2399353657083435  0.5691015872401459   T   T   T
 -0.0009218288687104  0.7569638845732310  0.5687340942464445   T   T   T
  0.4977768066856105  0.0013212699269660  0.5677409788472823   T   T   T
  0.1662163748531131  0.6703401725229348  0.4801720118896607   T   T   T
  0.7388823696837806  0.7616894549066944  0.5833151033691499   T   T   T
  0.2407697957351516  0.7581684514647620  0.5721418878511634   T   T   T
  0.1654614229103130  0.9161369539320606  0.4764926923673643   T   T   T
  0.5056726306847450  0.4873959070412352  0.5778286170213186   T   T   T
  0.2546727850847966  0.4915178321078048  0.5718582020019872   T   T   T
  0.5833333333333357  0.8333333333333357  0.3817991009012260   F   F   F
  0.5032416709482819  0.7548299797406107  0.5738196441047824   T   T   T
  0.9205151341142641  0.9140699856705793  0.4766508678639250   T   T   T
  0.7470581319341948  0.0035435581026278  0.5653279090892188   T   T   T
  0.0040727196753451  0.4922173442072788  0.5726768511436727   T   T   T
  0.9176121965013424  0.6683226189845921  0.4777522121053154   T   T   T
  0.7583234968435728  0.2421776408724303  0.5675683188290052   T   T   T
 -0.0013438294376831  0.2517138114821271  0.5669442004140196   T   T   T
  0.7561831651471135  0.4909349830662244  0.5734947852538396   T   T   T
 -0.0048396035064266 -0.0002735850092671  0.5628076669060795   T   T   T
  0.9176137444483300  0.1661764310757822  0.4753804803424999   T   T   T
  0.4129241779260867  0.6671532210626663  0.4799181964980493   T   T   T
  0.4150714225958611  0.4208926282096113  0.4801566715281252   T   T   T
 
  0.00000000E+00  0.00000000E+00  0.00000000E+00
  0.00000000E+00  0.00000000E+00  0.00000000E+00
  0.00000000E+00  0.00000000E+00  0.00000000E+00
  0.00000000E+00  0.00000000E+00  0.00000000E+00
  0.00000000E+00  0.00000000E+00  0.00000000E+00
  0.00000000E+00  0.00000000E+00  0.00000000E+00
  0.00000000E+00  0.00000000E+00  0.00000000E+00
  0.00000000E+00  0.00000000E+00  0.00000000E+00
  0.00000000E+00  0.00000000E+00  0.00000000E+00
  0.00000000E+00  0.00000000E+00  0.00000000E+00
  0.00000000E+00  0.00000000E+00  0.00000000E+00
  0.00000000E+00  0.00000000E+00  0.00000000E+00
  0.00000000E+00  0.00000000E+00  0.00000000E+00
  0.00000000E+00  0.00000000E+00  0.00000000E+00
  0.00000000E+00  0.00000000E+00  0.00000000E+00
  0.00000000E+00  0.00000000E+00  0.00000000E+00
  0.00000000E+00  0.00000000E+00  0.00000000E+00
  0.00000000E+00  0.00000000E+00  0.00000000E+00
  0.00000000E+00  0.00000000E+00  0.00000000E+00
  0.00000000E+00  0.00000000E+00  0.00000000E+00
  0.00000000E+00  0.00000000E+00  0.00000000E+00
  0.00000000E+00  0.00000000E+00  0.00000000E+00
  0.00000000E+00  0.00000000E+00  0.00000000E+00
  0.00000000E+00  0.00000000E+00  0.00000000E+00
  0.00000000E+00  0.00000000E+00  0.00000000E+00
  0.00000000E+00  0.00000000E+00  0.00000000E+00
  0.00000000E+00  0.00000000E+00  0.00000000E+00
  0.00000000E+00  0.00000000E+00  0.00000000E+00
  0.00000000E+00  0.00000000E+00  0.00000000E+00
  0.00000000E+00  0.00000000E+00  0.00000000E+00
  0.00000000E+00  0.00000000E+00  0.00000000E+00
  0.00000000E+00  0.00000000E+00  0.00000000E+00
  0.00000000E+00  0.00000000E+00  0.00000000E+00
  0.00000000E+00  0.00000000E+00  0.00000000E+00
  0.00000000E+00  0.00000000E+00  0.00000000E+00
  0.00000000E+00  0.00000000E+00  0.00000000E+00
  0.00000000E+00  0.00000000E+00  0.00000000E+00
  0.00000000E+00  0.00000000E+00  0.00000000E+00
  0.00000000E+00  0.00000000E+00  0.00000000E+00
  0.00000000E+00  0.00000000E+00  0.00000000E+00
  0.00000000E+00  0.00000000E+00  0.00000000E+00
  0.00000000E+00  0.00000000E+00  0.00000000E+00
  0.00000000E+00  0.00000000E+00  0.00000000E+00
  0.00000000E+00  0.00000000E+00  0.00000000E+00
  0.00000000E+00  0.00000000E+00  0.00000000E+00
  0.00000000E+00  0.00000000E+00  0.00000000E+00
  0.00000000E+00  0.00000000E+00  0.00000000E+00
  0.00000000E+00  0.00000000E+00  0.00000000E+00
  0.00000000E+00  0.00000000E+00  0.00000000E+00
  0.00000000E+00  0.00000000E+00  0.00000000E+00
  0.00000000E+00  0.00000000E+00  0.00000000E+00
  0.00000000E+00  0.00000000E+00  0.00000000E+00
  0.00000000E+00  0.00000000E+00  0.00000000E+00
  0.00000000E+00  0.00000000E+00  0.00000000E+00
  0.00000000E+00  0.00000000E+00  0.00000000E+00
  0.00000000E+00  0.00000000E+00  0.00000000E+00
