Au  O Pd                                
   1.00000000000000     
    11.0025815152626798    0.0000000000000000    0.0000000000000000
     5.5012907576313399    9.5285150994265617    0.0000000000000000
     0.0000000000000000    0.0000000000000000   26.1917850942952910
   Au   O    Pd
    24     8    24
Selective dynamics
Direct
 -0.0109310573174285  0.7355201520826786  0.5647315811166363   T   T   T
  0.0833333333333357  0.8333333333333357  0.3817991009012260   F   F   F
  0.7501518238546397  0.4977767732182437  0.5710753786483593   T   T   T
  0.6620184309131532  0.6780213980838484  0.4881515647347279   T   T   T
  0.8333333333333357  0.5833333333333357  0.3817991009012260   F   F   F
  0.9178535158818030  0.4206669812586282  0.4791649982192020   T   T   T
 -0.0035432725267317  0.2548261429447401  0.5681151603826196   T   T   T
  0.6652860187909060  0.4208310323681764  0.4753624091272290   T   T   T
  0.8333333333333357  0.3333333333333357  0.3817991009012260   F   F   F
  0.9124861394790559  0.6709294436248845  0.4723586495342389   T   T   T
  0.6658994190700260  0.1650353359103327  0.4748081107159031   T   T   T
  0.4103648527391013  0.9243310344108459  0.4887939766961560   T   T   T
  0.1594391013412825  0.9217746471021019  0.4734505354683501   T   T   T
  0.5833333333333357  0.8333333333333357  0.3817991009012260   F   F   F
  0.3333333333333357  0.0833333333333357  0.3817991009012260   F   F   F
  0.1628452476777194  0.1696244782839561  0.4718524482355358   T   T   T
  0.2500900392620971  0.0145962631596136  0.6030819682400429   T   T   T
  0.4113585152208217  0.6744314293416006  0.4746178869135222   T   T   T
  0.5833333333333357  0.5833333333333357  0.3817991009012260   F   F   F
  0.2432520360680201  0.2430998209325427  0.5638816572591505   T   T   T
  0.4806423058769058  0.2599070317692658  0.5696212348207333   T   T   T
  0.4114077466008843  0.4189089896548401  0.4714324595751407   T   T   T
  0.5833333333333357  0.0833333333333357  0.3817991009012260   F   F   F
  0.2330700637134707  0.7501160249988702  0.5658996120274310   T   T   T
  0.8374125260777093  0.8506870366100928  0.6223459277476395   T   T   T
  0.2156337804290939  0.4513259685568562  0.6313546387944892   T   T   T
  0.0397841059216559  0.0810147964626377  0.6212615976157527   T   T   T
  0.3287760394816768  0.8009460662692650  0.6251605507102772   T   T   T
  0.8421254558325386  0.5069293952936234  0.6415956635960949   T   T   T
  0.5836409307106775  0.0809741937780619  0.6174965289094437   T   T   T
  0.5829683843220337  0.3506014332838518  0.6113599268339581   T   T   T
  0.5807442962706387  0.8224417601027859  0.6275083144931091   T   T   T
  0.4990430826727744 -0.0139748515307728  0.5796305683207756   T   T   T
  0.4145561752157090  0.1683340632639950  0.4768444663346492   T   T   T
  0.2324329073788929  0.4974240564529585  0.5613948861252047   T   T   T
  0.1632241890928435  0.4192810626072245  0.4702021842686853   T   T   T
  0.3333333333333357  0.3333333333333357  0.3817991009012260   F   F   F
  0.7908037650579753  0.7031737979009344  0.6279799588661945   T   T   T
  0.4864168963645958  0.5093128212279545  0.5625870434581683   T   T   T
  0.3333333333333357  0.5833333333333357  0.3817991009012260   F   F   F
  0.0833333333333357  0.0833333333333357  0.3817991009012260   F   F   F
  0.9110957993630920  0.9184609199593713  0.4759981840593890   T   T   T
  0.3333333333333357  0.8333333333333357  0.3817991009012260   F   F   F
  0.8333333333333357  0.0833333333333357  0.3817991009012260   F   F   F
  0.0353733035903613  0.4694867454107686  0.6281327239209427   T   T   T
  0.7467917314256767  0.0030374754783162  0.5693707242232514   T   T   T
  0.0833333333333357  0.5833333333333357  0.3817991009012260   F   F   F
  0.7499112948923163  0.2484067734462944  0.5646155807651582   T   T   T
  0.0833333333333357  0.3333333333333357  0.3817991009012260   F   F   F
 -0.0084594364833849 -0.0025813510481281  0.5628921485658065   T   T   T
  0.9128884560967730  0.1686597318530262  0.4745031664989038   T   T   T
  0.8333333333333357  0.8333333333333357  0.3817991009012260   F   F   F
  0.6624792141442798  0.9198182048994742  0.4766309351892747   T   T   T
  0.5015583529862443  0.7354027070321048  0.5806622152694230   T   T   T
  0.1610832812837982  0.6698566853492574  0.4759086507269152   T   T   T
  0.5833333333333357  0.3333333333333357  0.3817991009012260   F   F   F
 
  0.00000000E+00  0.00000000E+00  0.00000000E+00
  0.00000000E+00  0.00000000E+00  0.00000000E+00
  0.00000000E+00  0.00000000E+00  0.00000000E+00
  0.00000000E+00  0.00000000E+00  0.00000000E+00
  0.00000000E+00  0.00000000E+00  0.00000000E+00
  0.00000000E+00  0.00000000E+00  0.00000000E+00
  0.00000000E+00  0.00000000E+00  0.00000000E+00
  0.00000000E+00  0.00000000E+00  0.00000000E+00
  0.00000000E+00  0.00000000E+00  0.00000000E+00
  0.00000000E+00  0.00000000E+00  0.00000000E+00
  0.00000000E+00  0.00000000E+00  0.00000000E+00
  0.00000000E+00  0.00000000E+00  0.00000000E+00
  0.00000000E+00  0.00000000E+00  0.00000000E+00
  0.00000000E+00  0.00000000E+00  0.00000000E+00
  0.00000000E+00  0.00000000E+00  0.00000000E+00
  0.00000000E+00  0.00000000E+00  0.00000000E+00
  0.00000000E+00  0.00000000E+00  0.00000000E+00
  0.00000000E+00  0.00000000E+00  0.00000000E+00
  0.00000000E+00  0.00000000E+00  0.00000000E+00
  0.00000000E+00  0.00000000E+00  0.00000000E+00
  0.00000000E+00  0.00000000E+00  0.00000000E+00
  0.00000000E+00  0.00000000E+00  0.00000000E+00
  0.00000000E+00  0.00000000E+00  0.00000000E+00
  0.00000000E+00  0.00000000E+00  0.00000000E+00
  0.00000000E+00  0.00000000E+00  0.00000000E+00
  0.00000000E+00  0.00000000E+00  0.00000000E+00
  0.00000000E+00  0.00000000E+00  0.00000000E+00
  0.00000000E+00  0.00000000E+00  0.00000000E+00
  0.00000000E+00  0.00000000E+00  0.00000000E+00
  0.00000000E+00  0.00000000E+00  0.00000000E+00
  0.00000000E+00  0.00000000E+00  0.00000000E+00
  0.00000000E+00  0.00000000E+00  0.00000000E+00
  0.00000000E+00  0.00000000E+00  0.00000000E+00
  0.00000000E+00  0.00000000E+00  0.00000000E+00
  0.00000000E+00  0.00000000E+00  0.00000000E+00
  0.00000000E+00  0.00000000E+00  0.00000000E+00
  0.00000000E+00  0.00000000E+00  0.00000000E+00
  0.00000000E+00  0.00000000E+00  0.00000000E+00
  0.00000000E+00  0.00000000E+00  0.00000000E+00
  0.00000000E+00  0.00000000E+00  0.00000000E+00
  0.00000000E+00  0.00000000E+00  0.00000000E+00
  0.00000000E+00  0.00000000E+00  0.00000000E+00
  0.00000000E+00  0.00000000E+00  0.00000000E+00
  0.00000000E+00  0.00000000E+00  0.00000000E+00
  0.00000000E+00  0.00000000E+00  0.00000000E+00
  0.00000000E+00  0.00000000E+00  0.00000000E+00
  0.00000000E+00  0.00000000E+00  0.00000000E+00
  0.00000000E+00  0.00000000E+00  0.00000000E+00
  0.00000000E+00  0.00000000E+00  0.00000000E+00
  0.00000000E+00  0.00000000E+00  0.00000000E+00
  0.00000000E+00  0.00000000E+00  0.00000000E+00
  0.00000000E+00  0.00000000E+00  0.00000000E+00
  0.00000000E+00  0.00000000E+00  0.00000000E+00
  0.00000000E+00  0.00000000E+00  0.00000000E+00
  0.00000000E+00  0.00000000E+00  0.00000000E+00
  0.00000000E+00  0.00000000E+00  0.00000000E+00
