Au Pd                                   
   1.00000000000000     
    11.0025815152626798    0.0000000000000000    0.0000000000000000
     5.5012907576313399    9.5285150994265617    0.0000000000000000
     0.0000000000000000    0.0000000000000000   24.4917850942952882
   Au   Pd
    24    24
Direct
  0.1646521483907867  0.4182670332980457  0.5011756214013677
  0.5843455978394761  0.5839217806124656  0.3956936115305970
  0.5011584857428362  0.2464859626601940  0.6019366508965591
  0.4179449226368772  0.4148252771787667  0.5013968535127923
  0.5839348565827390  0.3337280529001027  0.3986926831688097
  0.5866637386801880  0.8322481036259393  0.3937003357540901
  0.4180444448455389  0.9175533776791772  0.5003559974460409
  0.5841390438460460  0.0826269747582320  0.3990882453601085
  0.1650226864071619  0.9163062433782795  0.5018560568760422
  0.3303407218518038  0.8357490444346548  0.3922377305228075
  0.8366357305310517  0.0812126597062878  0.3995845760522327
  0.3297922836215825  0.5865127897458005  0.3949803409660169
  0.4167958596008294  0.6650889393355223  0.5008690092954275
  0.3301419208872616  0.3344905755975413  0.3963560809883664
  0.5010712989776049  0.5007718360241683  0.6049430753653786
  0.1652962073349992  0.1677187695752948  0.5022946706866026
  0.3306300939097645  0.0847793645030523  0.3962575853572480
  0.8364889200558435  0.3337212361765239  0.4013976456806377
 -0.0016517241090326 -0.0010571637572207  0.6064485659838392
  0.9152060019138434  0.9159410507611265  0.5014505131235351
  0.6697111129386644  0.6651767051561159  0.5003933115203916
  0.2537456011511459 -0.0017532609474356  0.6082886216180953
 -0.0015377458176219  0.2528450362546744  0.6050351434929655
  0.0785399560403188  0.5864664054118440  0.3975516005169987
  0.8339947416108269  0.8329635711690319  0.4036824452845608
  0.7507992964888690  0.5005865291307687  0.5977435357700734
  0.5020340221362992  0.7497230181711485  0.5979827359110929
  0.7497882612475748  0.2501010544314877  0.5969689858655350
  0.6675477647756071  0.4150462354289924  0.5005569269240785
  0.6668100703731193  0.1657189670884634  0.5002510579894404
  0.7503808443425082 -0.0024801808535785  0.5970061779165859
  0.8339305823067550  0.5841447449479754  0.4040728934414315
  0.0835740065690556  0.0837043451743829  0.4050354269834158
  0.2498006128429433  0.7492772285007036  0.5983748078580565
  0.4184499545846014  0.1656723765381308  0.4998977585267129
  0.6665434650803329  0.9172620563825301  0.4991116671174397
  0.2480013924948905  0.5019230635825340  0.5976928170356957
  0.1659527025158859  0.6657943866492368  0.4991788488869047
  0.2512344475052794  0.2498094461935017  0.5984516096955655
  0.0005159979398168  0.7479296294272870  0.5972604949281701
  0.0826018765545045  0.8347555167591419  0.4030124203056927
 -0.0001979989610060  0.5018588715011548  0.5980982930182236
  0.9168311974260354  0.6659573297303840  0.5007770396884981
  0.9153661425221244  0.4159632759877628  0.5022103284515117
  0.0815073479287194  0.3343361578953698  0.4042376809772588
  0.9134816182845400  0.1689005587014574  0.5024785756563381
  0.5028644978235431 -0.0022888318662733  0.5968640779218538
  0.7510749917474648  0.7497138552592516  0.5970688667289125
 
  0.00000000E+00  0.00000000E+00  0.00000000E+00
  0.00000000E+00  0.00000000E+00  0.00000000E+00
  0.00000000E+00  0.00000000E+00  0.00000000E+00
  0.00000000E+00  0.00000000E+00  0.00000000E+00
  0.00000000E+00  0.00000000E+00  0.00000000E+00
  0.00000000E+00  0.00000000E+00  0.00000000E+00
  0.00000000E+00  0.00000000E+00  0.00000000E+00
  0.00000000E+00  0.00000000E+00  0.00000000E+00
  0.00000000E+00  0.00000000E+00  0.00000000E+00
  0.00000000E+00  0.00000000E+00  0.00000000E+00
  0.00000000E+00  0.00000000E+00  0.00000000E+00
  0.00000000E+00  0.00000000E+00  0.00000000E+00
  0.00000000E+00  0.00000000E+00  0.00000000E+00
  0.00000000E+00  0.00000000E+00  0.00000000E+00
  0.00000000E+00  0.00000000E+00  0.00000000E+00
  0.00000000E+00  0.00000000E+00  0.00000000E+00
  0.00000000E+00  0.00000000E+00  0.00000000E+00
  0.00000000E+00  0.00000000E+00  0.00000000E+00
  0.00000000E+00  0.00000000E+00  0.00000000E+00
  0.00000000E+00  0.00000000E+00  0.00000000E+00
  0.00000000E+00  0.00000000E+00  0.00000000E+00
  0.00000000E+00  0.00000000E+00  0.00000000E+00
  0.00000000E+00  0.00000000E+00  0.00000000E+00
  0.00000000E+00  0.00000000E+00  0.00000000E+00
  0.00000000E+00  0.00000000E+00  0.00000000E+00
  0.00000000E+00  0.00000000E+00  0.00000000E+00
  0.00000000E+00  0.00000000E+00  0.00000000E+00
  0.00000000E+00  0.00000000E+00  0.00000000E+00
  0.00000000E+00  0.00000000E+00  0.00000000E+00
  0.00000000E+00  0.00000000E+00  0.00000000E+00
  0.00000000E+00  0.00000000E+00  0.00000000E+00
  0.00000000E+00  0.00000000E+00  0.00000000E+00
  0.00000000E+00  0.00000000E+00  0.00000000E+00
  0.00000000E+00  0.00000000E+00  0.00000000E+00
  0.00000000E+00  0.00000000E+00  0.00000000E+00
  0.00000000E+00  0.00000000E+00  0.00000000E+00
  0.00000000E+00  0.00000000E+00  0.00000000E+00
  0.00000000E+00  0.00000000E+00  0.00000000E+00
  0.00000000E+00  0.00000000E+00  0.00000000E+00
  0.00000000E+00  0.00000000E+00  0.00000000E+00
  0.00000000E+00  0.00000000E+00  0.00000000E+00
  0.00000000E+00  0.00000000E+00  0.00000000E+00
  0.00000000E+00  0.00000000E+00  0.00000000E+00
  0.00000000E+00  0.00000000E+00  0.00000000E+00
  0.00000000E+00  0.00000000E+00  0.00000000E+00
  0.00000000E+00  0.00000000E+00  0.00000000E+00
  0.00000000E+00  0.00000000E+00  0.00000000E+00
  0.00000000E+00  0.00000000E+00  0.00000000E+00
