Au  O Pd                                
   1.00000000000000     
    11.0025815152626798    0.0000000000000000    0.0000000000000000
     5.5012907576313399    9.5285150994265617    0.0000000000000000
     0.0000000000000000    0.0000000000000000   26.1917850942952910
   Au   O    Pd
    24     8    24
Selective dynamics
Direct
  0.0833333333333357  0.0833333333333357  0.3817991009012260   F   F   F
  0.3333333333333357  0.8333333333333357  0.3817991009012260   F   F   F
  0.4976250416798076  0.5049980913210258  0.5608988022971521   T   T   T
  0.6667545397080530  0.6659308667604481  0.4786444128026566   T   T   T
  0.8333333333333357  0.5833333333333357  0.3817991009012260   F   F   F
  0.0833333333333357  0.3333333333333357  0.3817991009012260   F   F   F
  0.7585117111260221  0.2479256343996949  0.5622576605680230   T   T   T
  0.0092833032770173  0.2480056199205377  0.5612535417732257   T   T   T
  0.7177558984176190  0.0213236232498150  0.5629120954960519   T   T   T
  0.6703486559774244  0.1650084029395262  0.4727367198625767   T   T   T
  0.4185896085242825  0.9088636391416026  0.5089184777770775   T   T   T
  0.9160489643513724  0.9122911275499974  0.4732789152670093   T   T   T
  0.0035327800510867  0.7394045408741063  0.5709799371155923   T   T   T
  0.5833333333333357  0.5833333333333357  0.3817991009012260   F   F   F
  0.1848555651127495  0.1589244492147350  0.4750878361450318   T   T   T
  0.4197824205673559  0.4150547003755287  0.4753302389443163   T   T   T
  0.5833333333333357  0.3333333333333357  0.3817991009012260   F   F   F
  0.3333333333333357  0.3333333333333357  0.3817991009012260   F   F   F
  0.4677474257337220  0.0296113035408753  0.6669490744016201   T   T   T
  0.4309714457496014  0.1580250385406130  0.4939668919205247   T   T   T
  0.5833333333333357  0.0833333333333357  0.3817991009012260   F   F   F
  0.1667817231595821  0.6646984021421425  0.4744060312893881   T   T   T
  0.6485030224381493  0.8119283687701316  0.5702711613671152   T   T   T
  0.1721602776802966  0.9159741567230605  0.4748619690813523   T   T   T
  0.3301466353242258  0.7947168079693219  0.6260003678457969   T   T   T
  0.0751503498589231  0.0762796611239599  0.6117142635175145   T   T   T
  0.8118591936228238  0.8385679154035818  0.6088564511461257   T   T   T
  0.8828826781886913  0.5334527726193746  0.6157392421783793   T   T   T
  0.3490897450396792  0.2269843584367791  0.6432862022055296   T   T   T
  0.5676199885543612  0.8454393045021028  0.6987185721403820   T   T   T
  0.6398134203073027  0.2901847950970647  0.6272681132888548   T   T   T
  0.5919231189911486  0.5649144026096407  0.6198440899295177   T   T   T
  0.4184981821445652  0.6691842497561143  0.4726736749928646   T   T   T
  0.5185783484446930  0.7487336836636027  0.6501814521607255   T   T   T
  0.4863927670149154  0.2647217808951037  0.6092300772236431   T   T   T
  0.5833333333333357  0.8333333333333357  0.3817991009012260   F   F   F
  0.1722637300791596  0.4111637156075523  0.4765064758117586   T   T   T
  0.2573845565660044  0.2369120142932027  0.5753041138269831   T   T   T
  0.3333333333333357  0.5833333333333357  0.3817991009012260   F   F   F
  0.2573088683475179  0.4912188295571255  0.5642146298782786   T   T   T
  0.2826928711144849 -0.0103948308781739  0.6062709801202882   T   T   T
  0.2522495348773883  0.7477860899993357  0.5651982374681993   T   T   T
  0.0097945094216910  0.4947454378152518  0.5609354013132620   T   T   T
  0.9177973718286493  0.6626475867847070  0.4739348872436739   T   T   T
  0.8333333333333357  0.0833333333333357  0.3817991009012260   F   F   F
  0.0833333333333357  0.5833333333333357  0.3817991009012260   F   F   F
  0.8333333333333357  0.3333333333333357  0.3817991009012260   F   F   F
  0.6725096625790934  0.4164386488458974  0.4730865556372897   T   T   T
  0.9197544891178997  0.4138115974174176  0.4742265954276607   T   T   T
  0.0048016770401515 -0.0120739470154732  0.5633945397356896   T   T   T
  0.7533900037022540  0.5107056077550133  0.5722569133508881   T   T   T
  0.9210213848369895  0.1653887324865272  0.4721718630163122   T   T   T
  0.8333333333333357  0.8333333333333357  0.3817991009012260   F   F   F
  0.6631221376983299  0.9118410272608579  0.4702151720823393   T   T   T
  0.0833333333333357  0.8333333333333357  0.3817991009012260   F   F   F
  0.3333333333333357  0.0833333333333357  0.3817991009012260   F   F   F
 
  0.00000000E+00  0.00000000E+00  0.00000000E+00
  0.00000000E+00  0.00000000E+00  0.00000000E+00
  0.00000000E+00  0.00000000E+00  0.00000000E+00
  0.00000000E+00  0.00000000E+00  0.00000000E+00
  0.00000000E+00  0.00000000E+00  0.00000000E+00
  0.00000000E+00  0.00000000E+00  0.00000000E+00
  0.00000000E+00  0.00000000E+00  0.00000000E+00
  0.00000000E+00  0.00000000E+00  0.00000000E+00
  0.00000000E+00  0.00000000E+00  0.00000000E+00
  0.00000000E+00  0.00000000E+00  0.00000000E+00
  0.00000000E+00  0.00000000E+00  0.00000000E+00
  0.00000000E+00  0.00000000E+00  0.00000000E+00
  0.00000000E+00  0.00000000E+00  0.00000000E+00
  0.00000000E+00  0.00000000E+00  0.00000000E+00
  0.00000000E+00  0.00000000E+00  0.00000000E+00
  0.00000000E+00  0.00000000E+00  0.00000000E+00
  0.00000000E+00  0.00000000E+00  0.00000000E+00
  0.00000000E+00  0.00000000E+00  0.00000000E+00
  0.00000000E+00  0.00000000E+00  0.00000000E+00
  0.00000000E+00  0.00000000E+00  0.00000000E+00
  0.00000000E+00  0.00000000E+00  0.00000000E+00
  0.00000000E+00  0.00000000E+00  0.00000000E+00
  0.00000000E+00  0.00000000E+00  0.00000000E+00
  0.00000000E+00  0.00000000E+00  0.00000000E+00
  0.00000000E+00  0.00000000E+00  0.00000000E+00
  0.00000000E+00  0.00000000E+00  0.00000000E+00
  0.00000000E+00  0.00000000E+00  0.00000000E+00
  0.00000000E+00  0.00000000E+00  0.00000000E+00
  0.00000000E+00  0.00000000E+00  0.00000000E+00
  0.00000000E+00  0.00000000E+00  0.00000000E+00
  0.00000000E+00  0.00000000E+00  0.00000000E+00
  0.00000000E+00  0.00000000E+00  0.00000000E+00
  0.00000000E+00  0.00000000E+00  0.00000000E+00
  0.00000000E+00  0.00000000E+00  0.00000000E+00
  0.00000000E+00  0.00000000E+00  0.00000000E+00
  0.00000000E+00  0.00000000E+00  0.00000000E+00
  0.00000000E+00  0.00000000E+00  0.00000000E+00
  0.00000000E+00  0.00000000E+00  0.00000000E+00
  0.00000000E+00  0.00000000E+00  0.00000000E+00
  0.00000000E+00  0.00000000E+00  0.00000000E+00
  0.00000000E+00  0.00000000E+00  0.00000000E+00
  0.00000000E+00  0.00000000E+00  0.00000000E+00
  0.00000000E+00  0.00000000E+00  0.00000000E+00
  0.00000000E+00  0.00000000E+00  0.00000000E+00
  0.00000000E+00  0.00000000E+00  0.00000000E+00
  0.00000000E+00  0.00000000E+00  0.00000000E+00
  0.00000000E+00  0.00000000E+00  0.00000000E+00
  0.00000000E+00  0.00000000E+00  0.00000000E+00
  0.00000000E+00  0.00000000E+00  0.00000000E+00
  0.00000000E+00  0.00000000E+00  0.00000000E+00
  0.00000000E+00  0.00000000E+00  0.00000000E+00
  0.00000000E+00  0.00000000E+00  0.00000000E+00
  0.00000000E+00  0.00000000E+00  0.00000000E+00
  0.00000000E+00  0.00000000E+00  0.00000000E+00
  0.00000000E+00  0.00000000E+00  0.00000000E+00
  0.00000000E+00  0.00000000E+00  0.00000000E+00
