Au  O Pd                                
   1.00000000000000     
    11.0025815152626798    0.0000000000000000    0.0000000000000000
     5.5012907576313399    9.5285150994265617    0.0000000000000000
     0.0000000000000000    0.0000000000000000   26.1917850942952910
   Au   O    Pd
    24     8    24
Selective dynamics
Direct
  0.0833333333333357  0.0833333333333357  0.3817991009012260   F   F   F
  0.1656181027409148  0.9133627273353824  0.4744680943736203   T   T   T
  0.0833333333333357  0.8333333333333357  0.3817991009012260   F   F   F
  0.8333333333333357  0.8333333333333357  0.3817991009012260   F   F   F
  0.7367300262150149  0.4945206057009642  0.5644066960923052   T   T   T
  0.8333333333333357  0.5833333333333357  0.3817991009012260   F   F   F
  0.6604144569040064  0.4177370029800869  0.4756041898387107   T   T   T
  0.8333333333333357  0.3333333333333357  0.3817991009012260   F   F   F
  0.7531849977380115  0.9911694829697317  0.5629403531873900   T   T   T
  0.0833333333333357  0.5833333333333357  0.3817991009012260   F   F   F
  0.4158235270750417  0.9180511294505260  0.4734509721449427   T   T   T
  0.5081485162916036  0.5173846946586387  0.6087323584739370   T   T   T
  0.5833333333333357  0.8333333333333357  0.3817991009012260   F   F   F
  0.5833333333333357  0.5833333333333357  0.3817991009012260   F   F   F
  0.4944027739588888  0.2471635244591941  0.5732861130276142   T   T   T
  0.4049022149016514  0.4300221428329765  0.4895438706288364   T   T   T
  0.5833333333333357  0.3333333333333357  0.3817991009012260   F   F   F
  0.5060511864224295  0.0044701464875838  0.5936736928522360   T   T   T
  0.3333333333333357  0.3333333333333357  0.3817991009012260   F   F   F
  0.4152239630688603  0.1697965767179549  0.4768017918525621   T   T   T
  0.5833333333333357  0.0833333333333357  0.3817991009012260   F   F   F
  0.7518648811844663  0.7370707506212153  0.5633005789246838   T   T   T
  0.3333333333333357  0.5833333333333357  0.3817991009012260   F   F   F
  0.1535835341328158  0.6816487032595602  0.5112125919621110   T   T   T
  0.0565671333797625  0.9172705581754490  0.6307407370580473   T   T   T
  0.3176016464653130  0.5773390479717666  0.6424023188223439   T   T   T
  0.2950219401016465  0.0877579910163480  0.6143975285577635   T   T   T
  0.0625881719760497  0.5664541318952794  0.6246380908148269   T   T   T
  0.8193653304250199  0.8415194285326563  0.6230268390153194   T   T   T
  0.9320708699301635  0.3911444138988136  0.6143583676440525   T   T   T
  0.5725480368277152  0.7978636940947591  0.6157839201999130   T   T   T
  0.6218665152864130  0.2994044156757630  0.6218160940748249   T   T   T
  0.2439042977255409  0.9910372892097750  0.5614137977451286   T   T   T
  0.1641896985616308  0.1702085252670347  0.4718417733688008   T   T   T
  0.2571398326972650  0.7674985306976120  0.6108348647434502   T   T   T
  0.2470123855610928  0.4856076863799929  0.5896478323340588   T   T   T
  0.3333333333333357  0.0833333333333357  0.3817991009012260   F   F   F
  0.0240457118306794  0.7591474986155250  0.6232547712878260   T   T   T
  0.4081914001764673  0.6691551786194057  0.4766591579585318   T   T   T
  0.9160567459615651  0.9152810540786855  0.4727307694445632   T   T   T
  0.9988688456956932  0.4891470726615424  0.5675486791688783   T   T   T
  0.9203636732106838  0.4168975342976456  0.4742185911948285   T   T   T
  0.7556945202921562  0.2398802994445719  0.5637388096268471   T   T   T
  0.6665463903464678  0.9150156760377094  0.4735337116016560   T   T   T
  0.9143193510291250  0.1657182852156303  0.4759397406715355   T   T   T
  0.9981616390675911  0.9947980576000063  0.5616712696116735   T   T   T
  0.6648493278850899  0.6659365762587172  0.4739904865405375   T   T   T
  0.0833333333333357  0.3333333333333357  0.3817991009012260   F   F   F
  0.3333333333333357  0.8333333333333357  0.3817991009012260   F   F   F
  0.9981771410633967  0.2426090452734266  0.5625826347817858   T   T   T
  0.6656027804454542  0.1650640189966469  0.4757283538525873   T   T   T
  0.8333333333333357  0.0833333333333357  0.3817991009012260   F   F   F
  0.9179307094731942  0.6686346431631528  0.4789332136460755   T   T   T
  0.4848416319859152  0.7446786114785792  0.5602829522096241   T   T   T
  0.1643916984678286  0.4239844254267427  0.4808603152975415   T   T   T
  0.2483205851313553  0.2432187061451419  0.5642662068335187   T   T   T
 
  0.00000000E+00  0.00000000E+00  0.00000000E+00
  0.00000000E+00  0.00000000E+00  0.00000000E+00
  0.00000000E+00  0.00000000E+00  0.00000000E+00
  0.00000000E+00  0.00000000E+00  0.00000000E+00
  0.00000000E+00  0.00000000E+00  0.00000000E+00
  0.00000000E+00  0.00000000E+00  0.00000000E+00
  0.00000000E+00  0.00000000E+00  0.00000000E+00
  0.00000000E+00  0.00000000E+00  0.00000000E+00
  0.00000000E+00  0.00000000E+00  0.00000000E+00
  0.00000000E+00  0.00000000E+00  0.00000000E+00
  0.00000000E+00  0.00000000E+00  0.00000000E+00
  0.00000000E+00  0.00000000E+00  0.00000000E+00
  0.00000000E+00  0.00000000E+00  0.00000000E+00
  0.00000000E+00  0.00000000E+00  0.00000000E+00
  0.00000000E+00  0.00000000E+00  0.00000000E+00
  0.00000000E+00  0.00000000E+00  0.00000000E+00
  0.00000000E+00  0.00000000E+00  0.00000000E+00
  0.00000000E+00  0.00000000E+00  0.00000000E+00
  0.00000000E+00  0.00000000E+00  0.00000000E+00
  0.00000000E+00  0.00000000E+00  0.00000000E+00
  0.00000000E+00  0.00000000E+00  0.00000000E+00
  0.00000000E+00  0.00000000E+00  0.00000000E+00
  0.00000000E+00  0.00000000E+00  0.00000000E+00
  0.00000000E+00  0.00000000E+00  0.00000000E+00
  0.00000000E+00  0.00000000E+00  0.00000000E+00
  0.00000000E+00  0.00000000E+00  0.00000000E+00
  0.00000000E+00  0.00000000E+00  0.00000000E+00
  0.00000000E+00  0.00000000E+00  0.00000000E+00
  0.00000000E+00  0.00000000E+00  0.00000000E+00
  0.00000000E+00  0.00000000E+00  0.00000000E+00
  0.00000000E+00  0.00000000E+00  0.00000000E+00
  0.00000000E+00  0.00000000E+00  0.00000000E+00
  0.00000000E+00  0.00000000E+00  0.00000000E+00
  0.00000000E+00  0.00000000E+00  0.00000000E+00
  0.00000000E+00  0.00000000E+00  0.00000000E+00
  0.00000000E+00  0.00000000E+00  0.00000000E+00
  0.00000000E+00  0.00000000E+00  0.00000000E+00
  0.00000000E+00  0.00000000E+00  0.00000000E+00
  0.00000000E+00  0.00000000E+00  0.00000000E+00
  0.00000000E+00  0.00000000E+00  0.00000000E+00
  0.00000000E+00  0.00000000E+00  0.00000000E+00
  0.00000000E+00  0.00000000E+00  0.00000000E+00
  0.00000000E+00  0.00000000E+00  0.00000000E+00
  0.00000000E+00  0.00000000E+00  0.00000000E+00
  0.00000000E+00  0.00000000E+00  0.00000000E+00
  0.00000000E+00  0.00000000E+00  0.00000000E+00
  0.00000000E+00  0.00000000E+00  0.00000000E+00
  0.00000000E+00  0.00000000E+00  0.00000000E+00
  0.00000000E+00  0.00000000E+00  0.00000000E+00
  0.00000000E+00  0.00000000E+00  0.00000000E+00
  0.00000000E+00  0.00000000E+00  0.00000000E+00
  0.00000000E+00  0.00000000E+00  0.00000000E+00
  0.00000000E+00  0.00000000E+00  0.00000000E+00
  0.00000000E+00  0.00000000E+00  0.00000000E+00
  0.00000000E+00  0.00000000E+00  0.00000000E+00
  0.00000000E+00  0.00000000E+00  0.00000000E+00
