Au  O Pd                                
   1.00000000000000     
    11.0025815152626798    0.0000000000000000    0.0000000000000000
     5.5012907576313399    9.5285150994265617    0.0000000000000000
     0.0000000000000000    0.0000000000000000   26.1917850942952910
   Au   O    Pd
    24     8    24
Selective dynamics
Direct
  0.0833333333333357  0.0833333333333357  0.3817991009012260   F   F   F
  0.1655969038074246  0.9133675327564181  0.4744633781172970   T   T   T
  0.0833333333333357  0.8333333333333357  0.3817991009012260   F   F   F
  0.8333333333333357  0.8333333333333357  0.3817991009012260   F   F   F
  0.7366896230859044  0.4945323213640170  0.5644039877787556   T   T   T
  0.8333333333333357  0.5833333333333357  0.3817991009012260   F   F   F
  0.6603926957717593  0.4177493008007133  0.4756091913123418   T   T   T
  0.8333333333333357  0.3333333333333357  0.3817991009012260   F   F   F
  0.7532105390938911 -0.0088339362210331  0.5629536323392519   T   T   T
  0.0833333333333357  0.5833333333333357  0.3817991009012260   F   F   F
  0.4157858403896467  0.9181194486985554  0.4734495238272264   T   T   T
  0.5081649524057316  0.5173861396283184  0.6087268199670443   T   T   T
  0.5833333333333357  0.8333333333333357  0.3817991009012260   F   F   F
  0.5833333333333357  0.5833333333333357  0.3817991009012260   F   F   F
  0.4944045380765278  0.2471654862036563  0.5732884317738377   T   T   T
  0.4049186091534144  0.4300204064075055  0.4895601281231486   T   T   T
  0.5833333333333357  0.3333333333333357  0.3817991009012260   F   F   F
  0.5060723134734312  0.0044320505478816  0.5936599842693814   T   T   T
  0.3333333333333357  0.3333333333333357  0.3817991009012260   F   F   F
  0.4152120717164178  0.1698202558233819  0.4768022375939929   T   T   T
  0.5833333333333357  0.0833333333333357  0.3817991009012260   F   F   F
  0.7518890250314003  0.7370668291581719  0.5632991680955468   T   T   T
  0.3333333333333357  0.5833333333333357  0.3817991009012260   F   F   F
  0.1535972541817062  0.6816739627319020  0.5112085692739131   T   T   T
  0.0565664553614232  0.9172503894658683  0.6307255096727533   T   T   T
  0.3176144120303236  0.5773226447788056  0.6423991366772100   T   T   T
  0.2949850424877563  0.0877451839414888  0.6143828124935364   T   T   T
  0.0625183995749211  0.5664572215551347  0.6246232913193456   T   T   T
  0.8193635341153103  0.8415368560532189  0.6230294172628122   T   T   T
  0.9320469954928406  0.3911411992931074  0.6143362000667646   T   T   T
  0.5725345420831759  0.7979002845840498  0.6157843745717315   T   T   T
  0.6218841203240780  0.2993863680761230  0.6218106100537943   T   T   T
  0.2439251243520315 -0.0089582142699408  0.5614251155634485   T   T   T
  0.1642030829979901  0.1702096696716446  0.4718408423202832   T   T   T
  0.2570921182736742  0.7675742025413004  0.6108385950622268   T   T   T
  0.2470526676674807  0.4856177412612568  0.5896377565888514   T   T   T
  0.3333333333333357  0.0833333333333357  0.3817991009012260   F   F   F
  0.0240815084339790  0.7591873828291933  0.6232558264631441   T   T   T
  0.4081602056981413  0.6691694297784891  0.4766549586770398   T   T   T
  0.9160310951066636  0.9153132612907980  0.4727261355960536   T   T   T
 -0.0011336136711076  0.4891796620525772  0.5675605777407164   T   T   T
  0.9203511943655336  0.4168998558390781  0.4742228331675459   T   T   T
  0.7556600975783508  0.2399124624015299  0.5637496417811938   T   T   T
  0.6665644602303324  0.9150388046369502  0.4735336888043496   T   T   T
  0.9143360362686080  0.1656787045322313  0.4759368448383886   T   T   T
 -0.0018107695453788 -0.0052453003837970  0.5616818913497212   T   T   T
  0.6648599910881113  0.6658969471697996  0.4739975690431448   T   T   T
  0.0833333333333357  0.3333333333333357  0.3817991009012260   F   F   F
  0.3333333333333357  0.8333333333333357  0.3817991009012260   F   F   F
 -0.0018552003734411  0.2426649409504006  0.5625948594002609   T   T   T
  0.6655821408730683  0.1650661855712513  0.4757284476037196   T   T   T
  0.8333333333333357  0.0833333333333357  0.3817991009012260   F   F   F
  0.9178955253018339  0.6686614776028953  0.4789370280444908   T   T   T
  0.4848687916367035  0.7446535466475759  0.5602697362109784   T   T   T
  0.1643945899195432  0.4239600759715269  0.4808596379825584   T   T   T
  0.2483064522226852  0.2432478072819904  0.5642745840432267   T   T   T
 
  0.00000000E+00  0.00000000E+00  0.00000000E+00
  0.00000000E+00  0.00000000E+00  0.00000000E+00
  0.00000000E+00  0.00000000E+00  0.00000000E+00
  0.00000000E+00  0.00000000E+00  0.00000000E+00
  0.00000000E+00  0.00000000E+00  0.00000000E+00
  0.00000000E+00  0.00000000E+00  0.00000000E+00
  0.00000000E+00  0.00000000E+00  0.00000000E+00
  0.00000000E+00  0.00000000E+00  0.00000000E+00
  0.00000000E+00  0.00000000E+00  0.00000000E+00
  0.00000000E+00  0.00000000E+00  0.00000000E+00
  0.00000000E+00  0.00000000E+00  0.00000000E+00
  0.00000000E+00  0.00000000E+00  0.00000000E+00
  0.00000000E+00  0.00000000E+00  0.00000000E+00
  0.00000000E+00  0.00000000E+00  0.00000000E+00
  0.00000000E+00  0.00000000E+00  0.00000000E+00
  0.00000000E+00  0.00000000E+00  0.00000000E+00
  0.00000000E+00  0.00000000E+00  0.00000000E+00
  0.00000000E+00  0.00000000E+00  0.00000000E+00
  0.00000000E+00  0.00000000E+00  0.00000000E+00
  0.00000000E+00  0.00000000E+00  0.00000000E+00
  0.00000000E+00  0.00000000E+00  0.00000000E+00
  0.00000000E+00  0.00000000E+00  0.00000000E+00
  0.00000000E+00  0.00000000E+00  0.00000000E+00
  0.00000000E+00  0.00000000E+00  0.00000000E+00
  0.00000000E+00  0.00000000E+00  0.00000000E+00
  0.00000000E+00  0.00000000E+00  0.00000000E+00
  0.00000000E+00  0.00000000E+00  0.00000000E+00
  0.00000000E+00  0.00000000E+00  0.00000000E+00
  0.00000000E+00  0.00000000E+00  0.00000000E+00
  0.00000000E+00  0.00000000E+00  0.00000000E+00
  0.00000000E+00  0.00000000E+00  0.00000000E+00
  0.00000000E+00  0.00000000E+00  0.00000000E+00
  0.00000000E+00  0.00000000E+00  0.00000000E+00
  0.00000000E+00  0.00000000E+00  0.00000000E+00
  0.00000000E+00  0.00000000E+00  0.00000000E+00
  0.00000000E+00  0.00000000E+00  0.00000000E+00
  0.00000000E+00  0.00000000E+00  0.00000000E+00
  0.00000000E+00  0.00000000E+00  0.00000000E+00
  0.00000000E+00  0.00000000E+00  0.00000000E+00
  0.00000000E+00  0.00000000E+00  0.00000000E+00
  0.00000000E+00  0.00000000E+00  0.00000000E+00
  0.00000000E+00  0.00000000E+00  0.00000000E+00
  0.00000000E+00  0.00000000E+00  0.00000000E+00
  0.00000000E+00  0.00000000E+00  0.00000000E+00
  0.00000000E+00  0.00000000E+00  0.00000000E+00
  0.00000000E+00  0.00000000E+00  0.00000000E+00
  0.00000000E+00  0.00000000E+00  0.00000000E+00
  0.00000000E+00  0.00000000E+00  0.00000000E+00
  0.00000000E+00  0.00000000E+00  0.00000000E+00
  0.00000000E+00  0.00000000E+00  0.00000000E+00
  0.00000000E+00  0.00000000E+00  0.00000000E+00
  0.00000000E+00  0.00000000E+00  0.00000000E+00
  0.00000000E+00  0.00000000E+00  0.00000000E+00
  0.00000000E+00  0.00000000E+00  0.00000000E+00
  0.00000000E+00  0.00000000E+00  0.00000000E+00
  0.00000000E+00  0.00000000E+00  0.00000000E+00
