Au Pd                                   
   1.00000000000000     
    11.0025815152626798    0.0000000000000000    0.0000000000000000
     5.5012907576313399    9.5285150994265617    0.0000000000000000
     0.0000000000000000    0.0000000000000000   24.4917850942952882
   Au   Pd
    24    24
Direct
  0.0814829882251742  0.0861517462457220  0.3953133198579580
  0.7489542465458199  0.5022531826088091  0.6042839116996735
  0.6659462018974787  0.4160099873342453  0.5001892075908568
  0.8325691019844125  0.0815518355507759  0.3948805447162413
  0.4199633996394390  0.9153273929449370  0.4998306387100480
  0.4991665162780575  0.4970698016975237  0.6047176890221884
  0.4182732232486130  0.6651638281811716  0.5000493333484174
  0.5857825757021380  0.5848849801367135  0.3956494666232072
  0.5823177408937541  0.3337774847693144  0.3966991839454553
  0.5054465280811230 -0.0029917935675699  0.6055213640421846
  0.4203758456772079  0.1658029553192570  0.5002377641960044
  0.1672673580777592  0.9168662916806385  0.4995585598539639
  0.3330778358686399  0.8329641520928278  0.3925488872108252
  0.1663359954048600  0.6657340190074399  0.5006054329467576
  0.2504126916682177  0.2516479707121846  0.6037151238127024
  0.1670885953975243  0.4166173066076689  0.4997747043294702
  0.2470497705201271  0.7490372438450954  0.6077539611256567
  0.2499220266948178 -0.0010259063605677  0.6036821745781387
  0.9173761770960385  0.1664077730210647  0.5001010884941833
  0.9170671725073885  0.4178259368570077  0.5007924912130102
  0.3303907583675967  0.3374345845342114  0.3956086326426870
  0.9131943271985798  0.9166380606908178  0.4994172950190965
 -0.0016895211175875  0.2502023176184117  0.6052022299254092
  0.3335604989015054  0.0846785533374792  0.3965626221437207
  0.6672460608674738  0.9152201830408258  0.5009177273432626
  0.8323265603898584  0.8317846261929339  0.4031329437320354
  0.3322621711754634  0.5853912674617177  0.4025073568708467
  0.6684716122315684  0.6661501939287913  0.4995817386027195
  0.8348933024190441  0.5839367271386069  0.4033862762162358
  0.7493677484331214  0.2475601364990638  0.5972507303303881
 -0.0012439951102491 -0.0010446464036529  0.5978882028090544
  0.8338333002106957  0.3348569098615190  0.4021197320599716
  0.7514793660174320  0.0002858519776621  0.5961564894901807
  0.6666872173677703  0.1666295119404140  0.4983144574656219
  0.0814313666268286  0.3361633261676330  0.4026785643654117
  0.4996450967039852  0.7491789022905806  0.5975490368638956
  0.1685144045196827  0.1664427127137585  0.5005852997745567
  0.5859042215246159  0.8337549252532563  0.4031423751931894
  0.2490364604651221  0.4996926070015346  0.5977378408336395
  0.0807978466679038  0.5869450869704282  0.4024494954503691
  0.9139118206629174  0.6680145510645814  0.4999912881285816
  0.5013029714163560  0.2492779713907012  0.5963731147897124
  0.4182635508809646  0.4150195878816137  0.4995760418489849
 -0.0007895114768507  0.5025146430808805  0.5981207997622644
  0.0827740255300394  0.8323179216551579  0.4016724017283151
  0.5840432004810447  0.0811563257803874  0.4028103112103048
 -0.0026217293088628  0.7493355437952881  0.5974539194261358
  0.7511308765453892  0.7493854284511368  0.5959082286564661
 
  0.00000000E+00  0.00000000E+00  0.00000000E+00
  0.00000000E+00  0.00000000E+00  0.00000000E+00
  0.00000000E+00  0.00000000E+00  0.00000000E+00
  0.00000000E+00  0.00000000E+00  0.00000000E+00
  0.00000000E+00  0.00000000E+00  0.00000000E+00
  0.00000000E+00  0.00000000E+00  0.00000000E+00
  0.00000000E+00  0.00000000E+00  0.00000000E+00
  0.00000000E+00  0.00000000E+00  0.00000000E+00
  0.00000000E+00  0.00000000E+00  0.00000000E+00
  0.00000000E+00  0.00000000E+00  0.00000000E+00
  0.00000000E+00  0.00000000E+00  0.00000000E+00
  0.00000000E+00  0.00000000E+00  0.00000000E+00
  0.00000000E+00  0.00000000E+00  0.00000000E+00
  0.00000000E+00  0.00000000E+00  0.00000000E+00
  0.00000000E+00  0.00000000E+00  0.00000000E+00
  0.00000000E+00  0.00000000E+00  0.00000000E+00
  0.00000000E+00  0.00000000E+00  0.00000000E+00
  0.00000000E+00  0.00000000E+00  0.00000000E+00
  0.00000000E+00  0.00000000E+00  0.00000000E+00
  0.00000000E+00  0.00000000E+00  0.00000000E+00
  0.00000000E+00  0.00000000E+00  0.00000000E+00
  0.00000000E+00  0.00000000E+00  0.00000000E+00
  0.00000000E+00  0.00000000E+00  0.00000000E+00
  0.00000000E+00  0.00000000E+00  0.00000000E+00
  0.00000000E+00  0.00000000E+00  0.00000000E+00
  0.00000000E+00  0.00000000E+00  0.00000000E+00
  0.00000000E+00  0.00000000E+00  0.00000000E+00
  0.00000000E+00  0.00000000E+00  0.00000000E+00
  0.00000000E+00  0.00000000E+00  0.00000000E+00
  0.00000000E+00  0.00000000E+00  0.00000000E+00
  0.00000000E+00  0.00000000E+00  0.00000000E+00
  0.00000000E+00  0.00000000E+00  0.00000000E+00
  0.00000000E+00  0.00000000E+00  0.00000000E+00
  0.00000000E+00  0.00000000E+00  0.00000000E+00
  0.00000000E+00  0.00000000E+00  0.00000000E+00
  0.00000000E+00  0.00000000E+00  0.00000000E+00
  0.00000000E+00  0.00000000E+00  0.00000000E+00
  0.00000000E+00  0.00000000E+00  0.00000000E+00
  0.00000000E+00  0.00000000E+00  0.00000000E+00
  0.00000000E+00  0.00000000E+00  0.00000000E+00
  0.00000000E+00  0.00000000E+00  0.00000000E+00
  0.00000000E+00  0.00000000E+00  0.00000000E+00
  0.00000000E+00  0.00000000E+00  0.00000000E+00
  0.00000000E+00  0.00000000E+00  0.00000000E+00
  0.00000000E+00  0.00000000E+00  0.00000000E+00
  0.00000000E+00  0.00000000E+00  0.00000000E+00
  0.00000000E+00  0.00000000E+00  0.00000000E+00
  0.00000000E+00  0.00000000E+00  0.00000000E+00
