Au Pd                                   
   1.00000000000000     
    11.0025815152626798    0.0000000000000000    0.0000000000000000
     5.5012907576313399    9.5285150994265617    0.0000000000000000
     0.0000000000000000    0.0000000000000000   24.4917850942952882
   Au   Pd
    24    24
Direct
  0.2497541229981788  0.7532217944663362  0.6013893440401957
  0.5845039360663876  0.3302832444098061  0.3994316796638924
  0.4978318564162093  0.0016183189099653  0.6077263999968666
  0.5816762948764967  0.8339999233697859  0.3961949772823585
  0.4147719919778908  0.9185984129278680  0.5011864528383134
  0.6650196956469583  0.9187029789269286  0.5020059901280992
  0.5033927759145523  0.7485274096472868  0.6031345598517539
  0.3314800202659698  0.8352152829205481  0.3961135298351099
  0.2503511234299610  0.4993799440924911  0.6023927275471783
  0.3321575353999857  0.5816437882065216  0.3984340378204372
  0.1691369853538754  0.4146674838025298  0.5009730233105780
  0.5007797557182720  0.2516954313594695  0.6023134019655364
  0.7517738418975427  0.0022414512932827  0.6068193682678891
  0.3324801509270953  0.3299457101433644  0.3998644883198132
  0.8338101425878459  0.5815908165033055  0.3931118499561929
  0.9168415966976022  0.1668104424571462  0.4996491309912154
  0.8326612250737430  0.8340030099258499  0.3937842275936257
  0.9146765191364836  0.4172506083473522  0.4985187902230090
  0.8341898444403792  0.3309510937607151  0.3941839550552860
  0.9163338340707827  0.6669852022775098  0.4997758243728497
  0.4180097885641667  0.6642355199983451  0.4992024446163556
  0.0819693486396101  0.8341913635436343  0.3981578397771243
  0.9175831592214400  0.9171704886799852  0.5012826971155951
 -0.0005864928615685  0.7502077087539053  0.6050544765618013
  0.8330443373870114  0.0821745074912625  0.4034057246563414
  0.6656826853118996  0.6666557389908931  0.4984648391503145
  0.6643193406012630  0.1689701745408654  0.5019704941989760
  0.7513350598390579  0.5000035411194780  0.5950489309655751
  0.5037154292797209  0.4991438231782533  0.5955153339592384
  0.7515419370885829  0.2532299988788442  0.5965815020870825
  0.6665622909652192  0.4155230239144100  0.4980072006801136
  0.0833889626353077  0.0844755047182978  0.4031723941450622
  0.4187487168920132  0.4143361095458526  0.5003543917206169
  0.4167718228670176  0.1671370993629615  0.5027326091960195
  0.5831687930191221  0.0821802780900475  0.4061479884451756
  0.1674932887824412  0.9161746133517699  0.4992964488461570
  0.1682507802658399  0.6658543184514607  0.5011101528556542
  0.2475599700424876  0.2501616808598002  0.5984541598679494
  0.2480229958119393  0.0030619907645836  0.5973535945977375
  0.1676551363337763  0.1659006009079868  0.5003513476226400
  0.3316321504770961  0.0836330493285640  0.4045888440885878
 -0.0015171535689443  0.4992104728054582  0.5979805874298579
  0.0820996988735133  0.5823184614555039  0.4030929417131451
  0.0009335681278649  0.2503099754103070  0.5966471801272709
  0.0838050741649964  0.3312939934130214  0.4023452754986419
  0.0005093881364067  0.0034309996715005  0.5978388127762325
  0.5834205597327896  0.5827249820542165  0.4012920476557406
  0.7512561144737177  0.7489576329707288  0.5975459805847932
 
  0.00000000E+00  0.00000000E+00  0.00000000E+00
  0.00000000E+00  0.00000000E+00  0.00000000E+00
  0.00000000E+00  0.00000000E+00  0.00000000E+00
  0.00000000E+00  0.00000000E+00  0.00000000E+00
  0.00000000E+00  0.00000000E+00  0.00000000E+00
  0.00000000E+00  0.00000000E+00  0.00000000E+00
  0.00000000E+00  0.00000000E+00  0.00000000E+00
  0.00000000E+00  0.00000000E+00  0.00000000E+00
  0.00000000E+00  0.00000000E+00  0.00000000E+00
  0.00000000E+00  0.00000000E+00  0.00000000E+00
  0.00000000E+00  0.00000000E+00  0.00000000E+00
  0.00000000E+00  0.00000000E+00  0.00000000E+00
  0.00000000E+00  0.00000000E+00  0.00000000E+00
  0.00000000E+00  0.00000000E+00  0.00000000E+00
  0.00000000E+00  0.00000000E+00  0.00000000E+00
  0.00000000E+00  0.00000000E+00  0.00000000E+00
  0.00000000E+00  0.00000000E+00  0.00000000E+00
  0.00000000E+00  0.00000000E+00  0.00000000E+00
  0.00000000E+00  0.00000000E+00  0.00000000E+00
  0.00000000E+00  0.00000000E+00  0.00000000E+00
  0.00000000E+00  0.00000000E+00  0.00000000E+00
  0.00000000E+00  0.00000000E+00  0.00000000E+00
  0.00000000E+00  0.00000000E+00  0.00000000E+00
  0.00000000E+00  0.00000000E+00  0.00000000E+00
  0.00000000E+00  0.00000000E+00  0.00000000E+00
  0.00000000E+00  0.00000000E+00  0.00000000E+00
  0.00000000E+00  0.00000000E+00  0.00000000E+00
  0.00000000E+00  0.00000000E+00  0.00000000E+00
  0.00000000E+00  0.00000000E+00  0.00000000E+00
  0.00000000E+00  0.00000000E+00  0.00000000E+00
  0.00000000E+00  0.00000000E+00  0.00000000E+00
  0.00000000E+00  0.00000000E+00  0.00000000E+00
  0.00000000E+00  0.00000000E+00  0.00000000E+00
  0.00000000E+00  0.00000000E+00  0.00000000E+00
  0.00000000E+00  0.00000000E+00  0.00000000E+00
  0.00000000E+00  0.00000000E+00  0.00000000E+00
  0.00000000E+00  0.00000000E+00  0.00000000E+00
  0.00000000E+00  0.00000000E+00  0.00000000E+00
  0.00000000E+00  0.00000000E+00  0.00000000E+00
  0.00000000E+00  0.00000000E+00  0.00000000E+00
  0.00000000E+00  0.00000000E+00  0.00000000E+00
  0.00000000E+00  0.00000000E+00  0.00000000E+00
  0.00000000E+00  0.00000000E+00  0.00000000E+00
  0.00000000E+00  0.00000000E+00  0.00000000E+00
  0.00000000E+00  0.00000000E+00  0.00000000E+00
  0.00000000E+00  0.00000000E+00  0.00000000E+00
  0.00000000E+00  0.00000000E+00  0.00000000E+00
  0.00000000E+00  0.00000000E+00  0.00000000E+00
