Au Pd                                   
   1.00000000000000     
    11.0025815152626798    0.0000000000000000    0.0000000000000000
     5.5012907576313399    9.5285150994265617    0.0000000000000000
     0.0000000000000000    0.0000000000000000   24.4917850942952882
   Au   Pd
    24    24
Direct
  0.0821323394811744  0.0854684744977760  0.3955939120278551
  0.2473529801041147  0.4990561579763035  0.6040133340743521
  0.3327649492580661  0.8346706494838046  0.3918791070625854
  0.1650481190951602  0.9186727838948395  0.5002356967900413
  0.4182028643202455  0.1670967638513146  0.5013062795728396
  0.4173785293784310  0.4157892610686295  0.5006070160073731
  0.5011285360213275  0.2455308831269855  0.6072787157116890
  0.1659419462395701  0.6666515482814793  0.5000473321402498
  0.5861807451254782  0.5812997587173194  0.3939420442614085
  0.5015296287312462  0.5005643737566530  0.6079551173316354
  0.5855944846898844  0.8351229434139277  0.3967495446624805
  0.4184381224907616  0.9165340195962107  0.4998060767573216
  0.8312012533200843  0.0838515891568698  0.3981258728085240
  0.6694469253541654  0.4162238182069570  0.4998704054543658
  0.7533034401273863  0.2473758991108868  0.6023801623638642
  0.4182484273058608  0.6667053087862750  0.4996393960586127
  0.3338224956706209  0.5811358612493619  0.3928954994731765
  0.2480905893057073  0.7515677228289206  0.6083804055941761
  0.0829617147809122  0.5818128336395303  0.3953223702529797
  0.9153310600439608  0.6652257190407689  0.4995695749503880
  0.9131800353094824  0.9194758622105569  0.5000218369997425
  0.7492083380743074  0.7494661225606440  0.6010711192693735
  0.2494758585252162  0.0021031706493138  0.6062341501561656
  0.1631495761644627  0.1709610316405415  0.4999655615463151
  0.3326367982894798  0.0852464459670982  0.4024672118141999
  0.8333534493179023  0.8331358545150922  0.4023284917911174
  0.7508585939134971  0.4993315741633888  0.5958912181055326
  0.6674169820346320  0.6668195360076700  0.4985262173434630
  0.8345213473768757  0.5819991812458990  0.4023455537236906
  0.9152625972259706  0.1682586125009719  0.4994174292245004
 -0.0002820865925848 -0.0003281365678049  0.5975574489841569
  0.8340993339756158  0.3344534204376193  0.4026825750551400
  0.7512714322660413 -0.0014084522098306  0.5976417230462802
  0.6675736010170678  0.1660948284674258  0.5014712210990317
  0.0827969542289433  0.3339021452540503  0.4023946750343383
  0.9163327314063102  0.4173915568327474  0.4990646096599934
 -0.0004140624808583  0.2517352084645366  0.5963727897829092
  0.2495974731113534  0.2494280680031692  0.5979850554254496
  0.3339448406618330  0.3313995303401192  0.4027153154445548
  0.0001804174732579  0.4970708634324694  0.5960767556034118
  0.0832977088967698  0.8328999602252175  0.4011990713462813
  0.5835948996643702  0.3325793976474068  0.4036542140759816
  0.5011564541095487 -0.0014161261494487  0.5984057491599362
 -0.0010452793454495  0.7497846974202405  0.5981879080804099
  0.5820725744061520  0.0851704076867367  0.4043427275390685
  0.6666236824054631  0.9161415332717051  0.4999514796131352
  0.4999776001513108  0.7499955000897309  0.5969321745713567
  0.1660589975688710  0.4179518362079186  0.4994978531485449
 
  0.00000000E+00  0.00000000E+00  0.00000000E+00
  0.00000000E+00  0.00000000E+00  0.00000000E+00
  0.00000000E+00  0.00000000E+00  0.00000000E+00
  0.00000000E+00  0.00000000E+00  0.00000000E+00
  0.00000000E+00  0.00000000E+00  0.00000000E+00
  0.00000000E+00  0.00000000E+00  0.00000000E+00
  0.00000000E+00  0.00000000E+00  0.00000000E+00
  0.00000000E+00  0.00000000E+00  0.00000000E+00
  0.00000000E+00  0.00000000E+00  0.00000000E+00
  0.00000000E+00  0.00000000E+00  0.00000000E+00
  0.00000000E+00  0.00000000E+00  0.00000000E+00
  0.00000000E+00  0.00000000E+00  0.00000000E+00
  0.00000000E+00  0.00000000E+00  0.00000000E+00
  0.00000000E+00  0.00000000E+00  0.00000000E+00
  0.00000000E+00  0.00000000E+00  0.00000000E+00
  0.00000000E+00  0.00000000E+00  0.00000000E+00
  0.00000000E+00  0.00000000E+00  0.00000000E+00
  0.00000000E+00  0.00000000E+00  0.00000000E+00
  0.00000000E+00  0.00000000E+00  0.00000000E+00
  0.00000000E+00  0.00000000E+00  0.00000000E+00
  0.00000000E+00  0.00000000E+00  0.00000000E+00
  0.00000000E+00  0.00000000E+00  0.00000000E+00
  0.00000000E+00  0.00000000E+00  0.00000000E+00
  0.00000000E+00  0.00000000E+00  0.00000000E+00
  0.00000000E+00  0.00000000E+00  0.00000000E+00
  0.00000000E+00  0.00000000E+00  0.00000000E+00
  0.00000000E+00  0.00000000E+00  0.00000000E+00
  0.00000000E+00  0.00000000E+00  0.00000000E+00
  0.00000000E+00  0.00000000E+00  0.00000000E+00
  0.00000000E+00  0.00000000E+00  0.00000000E+00
  0.00000000E+00  0.00000000E+00  0.00000000E+00
  0.00000000E+00  0.00000000E+00  0.00000000E+00
  0.00000000E+00  0.00000000E+00  0.00000000E+00
  0.00000000E+00  0.00000000E+00  0.00000000E+00
  0.00000000E+00  0.00000000E+00  0.00000000E+00
  0.00000000E+00  0.00000000E+00  0.00000000E+00
  0.00000000E+00  0.00000000E+00  0.00000000E+00
  0.00000000E+00  0.00000000E+00  0.00000000E+00
  0.00000000E+00  0.00000000E+00  0.00000000E+00
  0.00000000E+00  0.00000000E+00  0.00000000E+00
  0.00000000E+00  0.00000000E+00  0.00000000E+00
  0.00000000E+00  0.00000000E+00  0.00000000E+00
  0.00000000E+00  0.00000000E+00  0.00000000E+00
  0.00000000E+00  0.00000000E+00  0.00000000E+00
  0.00000000E+00  0.00000000E+00  0.00000000E+00
  0.00000000E+00  0.00000000E+00  0.00000000E+00
  0.00000000E+00  0.00000000E+00  0.00000000E+00
  0.00000000E+00  0.00000000E+00  0.00000000E+00
