Au  O Pd                                
   1.00000000000000     
    11.0025815152626798    0.0000000000000000    0.0000000000000000
     5.5012907576313399    9.5285150994265617    0.0000000000000000
     0.0000000000000000    0.0000000000000000   26.1917850942952910
   Au   O    Pd
    24     8    24
Selective dynamics
Direct
  0.0833333333333357  0.0833333333333357  0.3817991009012260   F   F   F
  0.3333333333333357  0.8333333333333357  0.3817991009012260   F   F   F
  0.0833333333333357  0.8333333333333357  0.3817991009012260   F   F   F
  0.9204302304696410  0.1616658111026426  0.4832823739121767   T   T   T
  0.8333333333333357  0.8333333333333357  0.3817991009012260   F   F   F
  0.8333333333333357  0.5833333333333357  0.3817991009012260   F   F   F
  0.0833333333333357  0.3333333333333357  0.3817991009012260   F   F   F
  0.6690988735040739  0.4145433716888178  0.4793254649195510   T   T   T
  0.8333333333333357  0.3333333333333357  0.3817991009012260   F   F   F
  0.0833333333333357  0.5833333333333357  0.3817991009012260   F   F   F
  0.6703787194561392  0.1604260557117629  0.4810502448858701   T   T   T
  0.1623402971235559  0.6669009972502242  0.4873674880698498   T   T   T
  0.9168133295370632  0.9125818716827910  0.4861923291495151   T   T   T
  0.4130811741196995  0.6715500895288764  0.4813126538527282   T   T   T
  0.3333333333333357  0.0833333333333357  0.3817991009012260   F   F   F
  0.1667436446123284  0.1638110877112005  0.4840083420161704   T   T   T
  0.5833333333333357  0.5833333333333357  0.3817991009012260   F   F   F
  0.4143554242947231  0.4158851611907624  0.4782111966080899   T   T   T
  0.3333333333333357  0.3333333333333357  0.3817991009012260   F   F   F
  0.5833333333333357  0.3333333333333357  0.3817991009012260   F   F   F
  0.5833333333333357  0.0833333333333357  0.3817991009012260   F   F   F
  0.1667443277610805  0.9144662650514988  0.5043024906175082   T   T   T
  0.3333333333333357  0.5833333333333357  0.3817991009012260   F   F   F
  0.5833333333333357  0.8333333333333357  0.3817991009012260   F   F   F
  0.0942313232311200  0.1067372945436397  0.6312426022917741   T   T   T
  0.3658603327265013  0.5288191858682252  0.6199012963954778   T   T   T
  0.0841717583245055  0.8178821241341361  0.6349223118261409   T   T   T
  0.8278956281313100  0.8224180512106056  0.6171602375300428   T   T   T
  0.3582533358542340  0.8279925468102377  0.6250208311246945   T   T   T
  0.8210431120677585  0.3674734468886151  0.6158382618223827   T   T   T
  0.7966441171534392  0.1092819481504003  0.6288700953904144   T   T   T
  0.5844682962803036  0.8459718040199582  0.6073979832883607   T   T   T
  0.4972761718050717  0.0118185909471246  0.5624719704365759   T   T   T
  0.0133571727850248  0.7341763473697881  0.5844760669097691   T   T   T
  0.1667823162408408  0.4157070854465114  0.4749570893811893   T   T   T
  0.7582561113966293  0.7457494559138327  0.5643856483706031   T   T   T
  0.5002174586571002  0.2510726726990038  0.5666468533405142   T   T   T
  0.2589663061935356  0.7345695634149999  0.5942314365409868   T   T   T
  0.2606898640356576  0.0115809095717911  0.5867329503601111   T   T   T
  0.5099384091321201  0.4929243893235590  0.5683631553240069   T   T   T
  0.4133676651038104  0.9184545521615051  0.4766833768385041   T   T   T
  0.2502054166061983  0.4895149897850785  0.5729454944490701   T   T   T
  0.5005016551103889  0.7475364725823680  0.5699863966118137   T   T   T
  0.8333333333333357  0.0833333333333357  0.3817991009012260   F   F   F
  0.0093290853188362  0.4976344253441063  0.5608883324449352   T   T   T
  0.7440044809930990  0.0072093658057147  0.5795923905000877   T   T   T
  0.9151814310883487  0.6656788257311835  0.4760442655093464   T   T   T
  0.0069995247139947  0.2601238267068972  0.5800770443164286   T   T   T
  0.7474230691389361  0.2554641712090371  0.5767321909958197   T   T   T
  0.9188705143079421  0.4144882240068577  0.4759143822173967   T   T   T
  0.6648546751297717  0.6697627182203431  0.4784956108550257   T   T   T
  0.7515197054785767  0.5104825487761194  0.5632335908818166   T   T   T
 -0.0026080196223679  0.0060435267695496  0.6002553367509961   T   T   T
  0.6662019074757650  0.9159239925051555  0.4745963150896124   T   T   T
  0.4157651778761545  0.1654739798746234  0.4757513655869259   T   T   T
  0.2547537424324380  0.2532514106607737  0.5662570363384155   T   T   T
 
  0.00000000E+00  0.00000000E+00  0.00000000E+00
  0.00000000E+00  0.00000000E+00  0.00000000E+00
  0.00000000E+00  0.00000000E+00  0.00000000E+00
  0.00000000E+00  0.00000000E+00  0.00000000E+00
  0.00000000E+00  0.00000000E+00  0.00000000E+00
  0.00000000E+00  0.00000000E+00  0.00000000E+00
  0.00000000E+00  0.00000000E+00  0.00000000E+00
  0.00000000E+00  0.00000000E+00  0.00000000E+00
  0.00000000E+00  0.00000000E+00  0.00000000E+00
  0.00000000E+00  0.00000000E+00  0.00000000E+00
  0.00000000E+00  0.00000000E+00  0.00000000E+00
  0.00000000E+00  0.00000000E+00  0.00000000E+00
  0.00000000E+00  0.00000000E+00  0.00000000E+00
  0.00000000E+00  0.00000000E+00  0.00000000E+00
  0.00000000E+00  0.00000000E+00  0.00000000E+00
  0.00000000E+00  0.00000000E+00  0.00000000E+00
  0.00000000E+00  0.00000000E+00  0.00000000E+00
  0.00000000E+00  0.00000000E+00  0.00000000E+00
  0.00000000E+00  0.00000000E+00  0.00000000E+00
  0.00000000E+00  0.00000000E+00  0.00000000E+00
  0.00000000E+00  0.00000000E+00  0.00000000E+00
  0.00000000E+00  0.00000000E+00  0.00000000E+00
  0.00000000E+00  0.00000000E+00  0.00000000E+00
  0.00000000E+00  0.00000000E+00  0.00000000E+00
  0.00000000E+00  0.00000000E+00  0.00000000E+00
  0.00000000E+00  0.00000000E+00  0.00000000E+00
  0.00000000E+00  0.00000000E+00  0.00000000E+00
  0.00000000E+00  0.00000000E+00  0.00000000E+00
  0.00000000E+00  0.00000000E+00  0.00000000E+00
  0.00000000E+00  0.00000000E+00  0.00000000E+00
  0.00000000E+00  0.00000000E+00  0.00000000E+00
  0.00000000E+00  0.00000000E+00  0.00000000E+00
  0.00000000E+00  0.00000000E+00  0.00000000E+00
  0.00000000E+00  0.00000000E+00  0.00000000E+00
  0.00000000E+00  0.00000000E+00  0.00000000E+00
  0.00000000E+00  0.00000000E+00  0.00000000E+00
  0.00000000E+00  0.00000000E+00  0.00000000E+00
  0.00000000E+00  0.00000000E+00  0.00000000E+00
  0.00000000E+00  0.00000000E+00  0.00000000E+00
  0.00000000E+00  0.00000000E+00  0.00000000E+00
  0.00000000E+00  0.00000000E+00  0.00000000E+00
  0.00000000E+00  0.00000000E+00  0.00000000E+00
  0.00000000E+00  0.00000000E+00  0.00000000E+00
  0.00000000E+00  0.00000000E+00  0.00000000E+00
  0.00000000E+00  0.00000000E+00  0.00000000E+00
  0.00000000E+00  0.00000000E+00  0.00000000E+00
  0.00000000E+00  0.00000000E+00  0.00000000E+00
  0.00000000E+00  0.00000000E+00  0.00000000E+00
  0.00000000E+00  0.00000000E+00  0.00000000E+00
  0.00000000E+00  0.00000000E+00  0.00000000E+00
  0.00000000E+00  0.00000000E+00  0.00000000E+00
  0.00000000E+00  0.00000000E+00  0.00000000E+00
  0.00000000E+00  0.00000000E+00  0.00000000E+00
  0.00000000E+00  0.00000000E+00  0.00000000E+00
  0.00000000E+00  0.00000000E+00  0.00000000E+00
  0.00000000E+00  0.00000000E+00  0.00000000E+00
