Au Pd                                   
   1.00000000000000     
    11.0025815152626798    0.0000000000000000    0.0000000000000000
     5.5012907576313399    9.5285150994265617    0.0000000000000000
     0.0000000000000000    0.0000000000000000   24.4917850942952882
   Au   Pd
    24    24
Selective dynamics
Direct
  0.0833333333333357  0.0833333333333357  0.4083001692812189   F   F   F
  0.9184016863036808  0.4175565528926672  0.5081868514370413   T   T   T
  0.0010947255834647  0.2504593320918906  0.6120076587837503   T   T   T
  0.9152783778594987  0.6678683044903343  0.5067609284015364   T   T   T
  0.0833333333333357  0.5833333333333357  0.4083001692812189   F   F   F
  0.9168793763129666  0.1649882227054669  0.5095038917894789   T   T   T
  0.2491820231335387  0.0009074489112917  0.6075981018012222   T   T   T
  0.3333333333333357  0.3333333333333357  0.4083001692812189   F   F   F
  0.2479462158215599  0.7480535244537814  0.6095026475093921   T   T   T
  0.3333333333333357  0.5833333333333357  0.4083001692812189   F   F   F
  0.3333333333333357  0.8333333333333357  0.4083001692812189   F   F   F
  0.5833333333333357  0.0833333333333357  0.4083001692812189   F   F   F
  0.9158410349882042  0.9166737472856743  0.5059369411935326   T   T   T
  0.5015538694654302 -0.0006402806830925  0.6104618631413264   T   T   T
  0.5833333333333357  0.3333333333333357  0.4083001692812189   F   F   F
  0.4145753131644187  0.4181837065477532  0.5118969587767362   T   T   T
  0.4996519119253744  0.2522052250575407  0.6135444644255678   T   T   T
  0.5833333333333357  0.5833333333333357  0.4083001692812189   F   F   F
  0.5018833126090876  0.7484445010684306  0.6084686129753094   T   T   T
  0.7529579621792166 -0.0016157044168950  0.6100208672313173   T   T   T
  0.8333333333333357  0.3333333333333357  0.4083001692812189   F   F   F
  0.6647025164001908  0.4193313377856414  0.5120435127257426   T   T   T
  0.7516764256892163  0.5004832684331848  0.6132583653362780   T   T   T
  0.4146511304145961  0.1645462208747158  0.5087055649637350   T   T   T
  0.0833333333333357  0.8333333333333357  0.4083001692812189   F   F   F
 -0.0002037679222196  0.7485541351881130  0.6043053916745995   T   T   T
  0.3333333333333357  0.0833333333333357  0.4083001692812189   F   F   F
  0.6640368444879365  0.9164381162271472  0.5069203903555272   T   T   T
  0.2488239810777757  0.2527528380848703  0.6045775123149866   T   T   T
  0.1671896988986123  0.1652354931108160  0.5072751456556991   T   T   T
  0.2479089229987754  0.4998422485223186  0.6060720661528231   T   T   T
  0.1673739991590228  0.6683384015023065  0.5084231338565838   T   T   T
  0.0022679348354052  0.5015516361090624  0.6054727844996570   T   T   T
  0.1685631658974205  0.9150687742443178  0.5082734949313290   T   T   T
  0.4994086288199149  0.5000213098167124  0.6086506448235389   T   T   T
  0.6635798175884250  0.6702183558357296  0.5069904084233124   T   T   T
  0.4170949172078613  0.9153108678905146  0.5069136150131623   T   T   T
 -0.0001194867108063 -0.0012235689867382  0.6057277263711395   T   T   T
  0.8333333333333357  0.8333333333333357  0.4083001692812189   F   F   F
  0.8333333333333357  0.5833333333333357  0.4083001692812189   F   F   F
  0.7505720985821875  0.2496932206848329  0.6074546854797019   T   T   T
  0.0833333333333357  0.3333333333333357  0.4083001692812189   F   F   F
  0.6656244208173286  0.1656281107256515  0.5097543866096833   T   T   T
  0.8333333333333357  0.0833333333333357  0.4083001692812189   F   F   F
  0.1664072158532557  0.4166890338476985  0.5076461940605291   T   T   T
  0.5833333333333357  0.8333333333333357  0.4083001692812189   F   F   F
  0.4150656965698988  0.6691677340226277  0.5097086741284509   T   T   T
  0.7526757292823407  0.7484282393076166  0.6036718442755080   T   T   T
 
  0.00000000E+00  0.00000000E+00  0.00000000E+00
  0.00000000E+00  0.00000000E+00  0.00000000E+00
  0.00000000E+00  0.00000000E+00  0.00000000E+00
  0.00000000E+00  0.00000000E+00  0.00000000E+00
  0.00000000E+00  0.00000000E+00  0.00000000E+00
  0.00000000E+00  0.00000000E+00  0.00000000E+00
  0.00000000E+00  0.00000000E+00  0.00000000E+00
  0.00000000E+00  0.00000000E+00  0.00000000E+00
  0.00000000E+00  0.00000000E+00  0.00000000E+00
  0.00000000E+00  0.00000000E+00  0.00000000E+00
  0.00000000E+00  0.00000000E+00  0.00000000E+00
  0.00000000E+00  0.00000000E+00  0.00000000E+00
  0.00000000E+00  0.00000000E+00  0.00000000E+00
  0.00000000E+00  0.00000000E+00  0.00000000E+00
  0.00000000E+00  0.00000000E+00  0.00000000E+00
  0.00000000E+00  0.00000000E+00  0.00000000E+00
  0.00000000E+00  0.00000000E+00  0.00000000E+00
  0.00000000E+00  0.00000000E+00  0.00000000E+00
  0.00000000E+00  0.00000000E+00  0.00000000E+00
  0.00000000E+00  0.00000000E+00  0.00000000E+00
  0.00000000E+00  0.00000000E+00  0.00000000E+00
  0.00000000E+00  0.00000000E+00  0.00000000E+00
  0.00000000E+00  0.00000000E+00  0.00000000E+00
  0.00000000E+00  0.00000000E+00  0.00000000E+00
  0.00000000E+00  0.00000000E+00  0.00000000E+00
  0.00000000E+00  0.00000000E+00  0.00000000E+00
  0.00000000E+00  0.00000000E+00  0.00000000E+00
  0.00000000E+00  0.00000000E+00  0.00000000E+00
  0.00000000E+00  0.00000000E+00  0.00000000E+00
  0.00000000E+00  0.00000000E+00  0.00000000E+00
  0.00000000E+00  0.00000000E+00  0.00000000E+00
  0.00000000E+00  0.00000000E+00  0.00000000E+00
  0.00000000E+00  0.00000000E+00  0.00000000E+00
  0.00000000E+00  0.00000000E+00  0.00000000E+00
  0.00000000E+00  0.00000000E+00  0.00000000E+00
  0.00000000E+00  0.00000000E+00  0.00000000E+00
  0.00000000E+00  0.00000000E+00  0.00000000E+00
  0.00000000E+00  0.00000000E+00  0.00000000E+00
  0.00000000E+00  0.00000000E+00  0.00000000E+00
  0.00000000E+00  0.00000000E+00  0.00000000E+00
  0.00000000E+00  0.00000000E+00  0.00000000E+00
  0.00000000E+00  0.00000000E+00  0.00000000E+00
  0.00000000E+00  0.00000000E+00  0.00000000E+00
  0.00000000E+00  0.00000000E+00  0.00000000E+00
  0.00000000E+00  0.00000000E+00  0.00000000E+00
  0.00000000E+00  0.00000000E+00  0.00000000E+00
  0.00000000E+00  0.00000000E+00  0.00000000E+00
  0.00000000E+00  0.00000000E+00  0.00000000E+00
