Au  O Pd                                
   1.00000000000000     
    11.0025815152626798    0.0000000000000000    0.0000000000000000
     5.5012907576313399    9.5285150994265617    0.0000000000000000
     0.0000000000000000    0.0000000000000000   26.1917850942952910
   Au   O    Pd
    24     8    24
Selective dynamics
Direct
  0.0833333333333357  0.0833333333333357  0.3817991009012260   F   F   F
  0.2499595188030654  0.7514562136278341  0.5633699688633024   T   T   T
  0.0833333333333357  0.8333333333333357  0.3817991009012260   F   F   F
  0.8333333333333357  0.5833333333333357  0.3817991009012260   F   F   F
  0.8333333333333357  0.3333333333333357  0.3817991009012260   F   F   F
  0.0833333333333357  0.3333333333333357  0.3817991009012260   F   F   F
  0.9167493857974582  0.4174732688358275  0.4985558949007885   T   T   T
  0.7533697347362862 -0.0344839903594508  0.6078873694414504   T   T   T
  0.6684728209166177  0.1663219537203615  0.4744068672487090   T   T   T
  0.8333333333333357  0.0833333333333357  0.3817991009012260   F   F   F
  0.0061347809195565  0.5256665575899631  0.6011961831462954   T   T   T
  0.9141447351184256  0.9198949689695893  0.4781109460587318   T   T   T
  0.4186462349482845  0.9114058634280389  0.4709640984704824   T   T   T
 -0.0082447906633303  0.7645442001973773  0.5676672811682322   T   T   T
  0.4892747246288343  0.4935209249069700  0.5683567348358847   T   T   T
  0.4194314031799375  0.6641715173923995  0.4755201295107802   T   T   T
  0.2285162790261320  0.0121439485173645  0.5600322493030457   T   T   T
  0.5833333333333357  0.5833333333333357  0.3817991009012260   F   F   F
  0.3333333333333357  0.3333333333333357  0.3817991009012260   F   F   F
  0.1604868813048166  0.4189706806715451  0.4732374469399543   T   T   T
  0.4936510766854084  0.2504604560166726  0.5675529195092176   T   T   T
  0.4938680801281627 -0.0096703291954835  0.5597951497055308   T   T   T
  0.1658839799192809  0.6654689315048163  0.4720547475137152   T   T   T
  0.4154366380405727  0.1661523471971601  0.4722232066186395   T   T   T
  0.0128938299595415  0.1422263612011047  0.6476677060727342   T   T   T
  0.1369329675439540  0.8015133213347007  0.6339939565753607   T   T   T
  0.1155769336943244  0.3169398696142641  0.6205753793761053   T   T   T
  0.3427903024803151  0.9249558082678836  0.6272303967678556   T   T   T
  0.7953954707385437  0.6177077693558987  0.6215520308368266   T   T   T
  0.5400843621353357  0.0925993429813219  0.6223648728305837   T   T   T
  0.7876672479569256  0.1300019065128239  0.6291304454181225   T   T   T
  0.5657964279402623  0.5732946918577043  0.6269549095821759   T   T   T
  0.1603416375991799  0.1680158535090774  0.4726802354273182   T   T   T
  0.5833333333333357  0.3333333333333357  0.3817991009012260   F   F   F
  0.4218336830872645  0.4145532460694311  0.4756966844906437   T   T   T
  0.3333333333333357  0.5833333333333357  0.3817991009012260   F   F   F
  0.2379753216172390  0.5005808100859457  0.5615898830537523   T   T   T
  0.5833333333333357  0.0833333333333357  0.3817991009012260   F   F   F
  0.7460924204834739  0.7525740309089337  0.5634311602819930   T   T   T
  0.5833333333333357  0.8333333333333357  0.3817991009012260   F   F   F
  0.4915754889457330  0.7609414985927596  0.5974068958796257   T   T   T
  0.3333333333333357  0.8333333333333357  0.3817991009012260   F   F   F
  0.9146839283469481  0.6679637470114789  0.4743616036942339   T   T   T
  0.0833333333333357  0.5833333333333357  0.3817991009012260   F   F   F
 -0.0161590801073123  0.2513123292274344  0.5864852704799675   T   T   T
  0.6732573807299100  0.4133893890678799  0.4800786282600281   T   T   T
  0.7521095588665715  0.2423555891815030  0.5655851881218263   T   T   T
 -0.0118855071157463 -0.0127658068857570  0.6328453389252421   T   T   T
  0.6709770056468788  0.6615099681735308  0.4757248629763460   T   T   T
  0.7347399100655000  0.5020144342328130  0.5804509979023178   T   T   T
  0.9206930338804968  0.1661917483391987  0.4809027188045022   T   T   T
  0.8333333333333357  0.8333333333333357  0.3817991009012260   F   F   F
  0.6698841129823183  0.9126072080977026  0.4734477426363655   T   T   T
  0.1637667696599817  0.9178231850478618  0.4724767536445857   T   T   T
  0.3333333333333357  0.0833333333333357  0.3817991009012260   F   F   F
  0.2414439911569355  0.2540850692414385  0.5608466050475138   T   T   T
 
  0.00000000E+00  0.00000000E+00  0.00000000E+00
  0.00000000E+00  0.00000000E+00  0.00000000E+00
  0.00000000E+00  0.00000000E+00  0.00000000E+00
  0.00000000E+00  0.00000000E+00  0.00000000E+00
  0.00000000E+00  0.00000000E+00  0.00000000E+00
  0.00000000E+00  0.00000000E+00  0.00000000E+00
  0.00000000E+00  0.00000000E+00  0.00000000E+00
  0.00000000E+00  0.00000000E+00  0.00000000E+00
  0.00000000E+00  0.00000000E+00  0.00000000E+00
  0.00000000E+00  0.00000000E+00  0.00000000E+00
  0.00000000E+00  0.00000000E+00  0.00000000E+00
  0.00000000E+00  0.00000000E+00  0.00000000E+00
  0.00000000E+00  0.00000000E+00  0.00000000E+00
  0.00000000E+00  0.00000000E+00  0.00000000E+00
  0.00000000E+00  0.00000000E+00  0.00000000E+00
  0.00000000E+00  0.00000000E+00  0.00000000E+00
  0.00000000E+00  0.00000000E+00  0.00000000E+00
  0.00000000E+00  0.00000000E+00  0.00000000E+00
  0.00000000E+00  0.00000000E+00  0.00000000E+00
  0.00000000E+00  0.00000000E+00  0.00000000E+00
  0.00000000E+00  0.00000000E+00  0.00000000E+00
  0.00000000E+00  0.00000000E+00  0.00000000E+00
  0.00000000E+00  0.00000000E+00  0.00000000E+00
  0.00000000E+00  0.00000000E+00  0.00000000E+00
  0.00000000E+00  0.00000000E+00  0.00000000E+00
  0.00000000E+00  0.00000000E+00  0.00000000E+00
  0.00000000E+00  0.00000000E+00  0.00000000E+00
  0.00000000E+00  0.00000000E+00  0.00000000E+00
  0.00000000E+00  0.00000000E+00  0.00000000E+00
  0.00000000E+00  0.00000000E+00  0.00000000E+00
  0.00000000E+00  0.00000000E+00  0.00000000E+00
  0.00000000E+00  0.00000000E+00  0.00000000E+00
  0.00000000E+00  0.00000000E+00  0.00000000E+00
  0.00000000E+00  0.00000000E+00  0.00000000E+00
  0.00000000E+00  0.00000000E+00  0.00000000E+00
  0.00000000E+00  0.00000000E+00  0.00000000E+00
  0.00000000E+00  0.00000000E+00  0.00000000E+00
  0.00000000E+00  0.00000000E+00  0.00000000E+00
  0.00000000E+00  0.00000000E+00  0.00000000E+00
  0.00000000E+00  0.00000000E+00  0.00000000E+00
  0.00000000E+00  0.00000000E+00  0.00000000E+00
  0.00000000E+00  0.00000000E+00  0.00000000E+00
  0.00000000E+00  0.00000000E+00  0.00000000E+00
  0.00000000E+00  0.00000000E+00  0.00000000E+00
  0.00000000E+00  0.00000000E+00  0.00000000E+00
  0.00000000E+00  0.00000000E+00  0.00000000E+00
  0.00000000E+00  0.00000000E+00  0.00000000E+00
  0.00000000E+00  0.00000000E+00  0.00000000E+00
  0.00000000E+00  0.00000000E+00  0.00000000E+00
  0.00000000E+00  0.00000000E+00  0.00000000E+00
  0.00000000E+00  0.00000000E+00  0.00000000E+00
  0.00000000E+00  0.00000000E+00  0.00000000E+00
  0.00000000E+00  0.00000000E+00  0.00000000E+00
  0.00000000E+00  0.00000000E+00  0.00000000E+00
  0.00000000E+00  0.00000000E+00  0.00000000E+00
  0.00000000E+00  0.00000000E+00  0.00000000E+00
