Au Pd                                   
   1.00000000000000     
    11.0025815152626798    0.0000000000000000    0.0000000000000000
     5.5012907576313399    9.5285150994265617    0.0000000000000000
     0.0000000000000000    0.0000000000000000   24.4917850942952882
   Au   Pd
    24    24
Direct
  0.2507463336355282  0.7511463350320803  0.6042265147693054
  0.4135029481936366  0.6664393764979479  0.4995151470656455
  0.5000566211231255  0.4995101221492161  0.6063343679976279
  0.6678689088853652  0.9165783203055078  0.4985171812602737
  0.5874046547115361  0.8329615914406915  0.3896207780742145
  0.3300069070943907  0.8335023171792777  0.3953743381503486
  0.2515541427060500  0.4970418563698676  0.6024268293468321
  0.4140546078488872  0.9192981317614709  0.4972793896912404
  0.8349663738540806  0.0799768332973509  0.3987719301995150
  0.6653147117914447  0.1670010785462133  0.4993989615687869
  0.3333849463414754  0.3355865395914941  0.3990685253093257
  0.2506782802054866  0.0029103660611913  0.6010846813202979
  0.5832393419435585  0.5821837617768226  0.3905618833678443
  0.7461761447030968  0.0004249268263766  0.6038497238151082
 -0.0024065031065741  0.7502025981122701  0.6033394915012549
  0.8358257237336663  0.3322194892763133  0.3944009595832366
  0.6664701443431132  0.4154265465528296  0.4991613564257954
  0.0002326442293272  0.4983876628033986  0.6033683226555485
  0.7496447928874984  0.2504636246376235  0.6042201615682506
  0.6687803230014717  0.6658545734273551  0.4979822964054181
  0.9206547905940718  0.4143637299060537  0.4991572298830868
  0.7494744167416929  0.5021359703939834  0.6061406554250803
 -0.0008339247128349  0.0023502643732675  0.6008834740292756
  0.3320202053858526  0.0853381073180831  0.3950133560297051
  0.5006860063361896  0.7507093748743502  0.5952296405417524
  0.8353191812569617  0.5831787165211862  0.4019803519761628
  0.8354002933429029  0.8311355437123511  0.4038917281291134
  0.4984275526208920  0.2488149239308639  0.5955598113984159
  0.0835764896650660  0.0828843846354557  0.4038630307962383
  0.5829758161798949  0.3339035991444848  0.4020126625395949
  0.9186983815865978  0.1644398498435878  0.4988417671219369
  0.0832761471765492  0.3346854694673864  0.4030095155851552
  0.0002098765182872  0.2510987281231913  0.5954890859256181
  0.0822679940753553  0.5845757657351394  0.4073226784229499
  0.9201273912299927  0.6658959949174472  0.5016403558503117
  0.0840273956035454  0.8307961034237378  0.4068928942416120
  0.9190145147860267  0.9151339689203137  0.5016289373988231
  0.4134225057703019  0.4175274240810724  0.5004697924049435
  0.1672114047927411  0.1659437116467098  0.4986513890005248
  0.2517460778398822  0.2487050590226315  0.5939998992380013
  0.3318806980210089  0.5835272682239485  0.4042790757780306
  0.1651324698932326  0.6674934168041040  0.5032888115250942
  0.1651228100984569  0.9176800831885275  0.5009420753975439
  0.5842050845226832  0.0832331597598915  0.4009781755365590
  0.4127743680133125  0.1696406560934917  0.4977197158379397
  0.4995326816421296  0.0000027870669014  0.5946910191475701
  0.1683967062978996  0.4170850174625070  0.5008419918194397
  0.7477506165951423  0.7506048697640321  0.5970780389436519
 
  0.00000000E+00  0.00000000E+00  0.00000000E+00
  0.00000000E+00  0.00000000E+00  0.00000000E+00
  0.00000000E+00  0.00000000E+00  0.00000000E+00
  0.00000000E+00  0.00000000E+00  0.00000000E+00
  0.00000000E+00  0.00000000E+00  0.00000000E+00
  0.00000000E+00  0.00000000E+00  0.00000000E+00
  0.00000000E+00  0.00000000E+00  0.00000000E+00
  0.00000000E+00  0.00000000E+00  0.00000000E+00
  0.00000000E+00  0.00000000E+00  0.00000000E+00
  0.00000000E+00  0.00000000E+00  0.00000000E+00
  0.00000000E+00  0.00000000E+00  0.00000000E+00
  0.00000000E+00  0.00000000E+00  0.00000000E+00
  0.00000000E+00  0.00000000E+00  0.00000000E+00
  0.00000000E+00  0.00000000E+00  0.00000000E+00
  0.00000000E+00  0.00000000E+00  0.00000000E+00
  0.00000000E+00  0.00000000E+00  0.00000000E+00
  0.00000000E+00  0.00000000E+00  0.00000000E+00
  0.00000000E+00  0.00000000E+00  0.00000000E+00
  0.00000000E+00  0.00000000E+00  0.00000000E+00
  0.00000000E+00  0.00000000E+00  0.00000000E+00
  0.00000000E+00  0.00000000E+00  0.00000000E+00
  0.00000000E+00  0.00000000E+00  0.00000000E+00
  0.00000000E+00  0.00000000E+00  0.00000000E+00
  0.00000000E+00  0.00000000E+00  0.00000000E+00
  0.00000000E+00  0.00000000E+00  0.00000000E+00
  0.00000000E+00  0.00000000E+00  0.00000000E+00
  0.00000000E+00  0.00000000E+00  0.00000000E+00
  0.00000000E+00  0.00000000E+00  0.00000000E+00
  0.00000000E+00  0.00000000E+00  0.00000000E+00
  0.00000000E+00  0.00000000E+00  0.00000000E+00
  0.00000000E+00  0.00000000E+00  0.00000000E+00
  0.00000000E+00  0.00000000E+00  0.00000000E+00
  0.00000000E+00  0.00000000E+00  0.00000000E+00
  0.00000000E+00  0.00000000E+00  0.00000000E+00
  0.00000000E+00  0.00000000E+00  0.00000000E+00
  0.00000000E+00  0.00000000E+00  0.00000000E+00
  0.00000000E+00  0.00000000E+00  0.00000000E+00
  0.00000000E+00  0.00000000E+00  0.00000000E+00
  0.00000000E+00  0.00000000E+00  0.00000000E+00
  0.00000000E+00  0.00000000E+00  0.00000000E+00
  0.00000000E+00  0.00000000E+00  0.00000000E+00
  0.00000000E+00  0.00000000E+00  0.00000000E+00
  0.00000000E+00  0.00000000E+00  0.00000000E+00
  0.00000000E+00  0.00000000E+00  0.00000000E+00
  0.00000000E+00  0.00000000E+00  0.00000000E+00
  0.00000000E+00  0.00000000E+00  0.00000000E+00
  0.00000000E+00  0.00000000E+00  0.00000000E+00
  0.00000000E+00  0.00000000E+00  0.00000000E+00
