Au Pd                                   
   1.00000000000000     
    11.0025815152626798    0.0000000000000000    0.0000000000000000
     5.5012907576313399    9.5285150994265617    0.0000000000000000
     0.0000000000000000    0.0000000000000000   24.4917850942952882
   Au   Pd
    24    24
Selective dynamics
Direct
  0.0833333333333357  0.0833333333333357  0.4083001692812189   F   F   F
  0.0833333333333357  0.8333333333333357  0.4083001692812189   F   F   F
  0.1697910202881721  0.1660888768574535  0.5095477709476719   T   T   T
  0.9157468629030390  0.4167797669882969  0.5077013658201803   T   T   T
  0.0833333333333357  0.3333333333333357  0.4083001692812189   F   F   F
 -0.0006239403153218 -0.0010313719900662  0.6149882985229977   T   T   T
  0.0014628093654220  0.2492932969780588  0.6122388332905191   T   T   T
  0.9146528220412808  0.9185582506571348  0.5119928725180698   T   T   T
  0.7524952002630967  0.7503805701850330  0.6124318398819891   T   T   T
  0.1667584379402341  0.6631000585464600  0.5076466544926026   T   T   T
  0.3333333333333357  0.8333333333333357  0.4083001692812189   F   F   F
  0.1670316669233624  0.9176123033705117  0.5123385156638289   T   T   T
  0.3333333333333357  0.3333333333333357  0.4083001692812189   F   F   F
  0.5833333333333357  0.0833333333333357  0.4083001692812189   F   F   F
  0.5833333333333357  0.3333333333333357  0.4083001692812189   F   F   F
  0.4994537377438936  0.2484905171859826  0.6084688659792274   T   T   T
  0.4185579406462044  0.6626233286574175  0.5078937528382114   T   T   T
  0.4987849420554239  0.4988982342792090  0.6101891915246216   T   T   T
  0.4974504156141544  0.7534756754678320  0.6115149503577094   T   T   T
  0.8333333333333357  0.0833333333333357  0.4083001692812189   F   F   F
  0.6667310438375011  0.6659279387585519  0.5061569270597319   T   T   T
  0.7504598001449287  0.4992272832688483  0.6128036854633176   T   T   T
  0.8333333333333357  0.8333333333333357  0.4083001692812189   F   F   F
  0.6640785908786719  0.9180993107104513  0.5097709596876795   T   T   T
  0.4174030864334787  0.4134678520698795  0.5082469871112122   T   T   T
  0.4980791202920162  0.0013627150868343  0.6057299131503645   T   T   T
  0.4166652829829215  0.1680755921178043  0.5082323502445751   T   T   T
  0.0014197979561878  0.7474376843118780  0.6061964417905058   T   T   T
  0.2495892013313528  0.2514405938788964  0.6053150254074606   T   T   T
  0.2472737707994482  0.5002675633167548  0.6044076337971079   T   T   T
  0.2516897463393324  0.0007045026987370  0.6077311729366810   T   T   T
  0.3333333333333357  0.5833333333333357  0.4083001692812189   F   F   F
  0.0016051954227609  0.4993967450335974  0.6045229526216404   T   T   T
  0.3333333333333357  0.0833333333333357  0.4083001692812189   F   F   F
  0.5833333333333357  0.5833333333333357  0.4083001692812189   F   F   F
  0.9145919672986601  0.1685546143221530  0.5094496473639685   T   T   T
  0.9170867634195166  0.6652896318258231  0.5074975775307083   T   T   T
  0.4171999116036818  0.9171629274322617  0.5076937323120790   T   T   T
  0.8333333333333357  0.3333333333333357  0.4083001692812189   F   F   F
  0.8333333333333357  0.5833333333333357  0.4083001692812189   F   F   F
  0.7504602158295290  0.2490662466934086  0.6052622600703784   T   T   T
  0.6671460753352236  0.4138781240379019  0.5073086462338962   T   T   T
  0.1674714474880662  0.4163937787491461  0.5072251205138329   T   T   T
  0.7490602094738599  0.0003308764015370  0.6074475264234167   T   T   T
  0.6658437507689671  0.1687190942767892  0.5093969105783890   T   T   T
  0.5833333333333357  0.8333333333333357  0.4083001692812189   F   F   F
  0.0833333333333357  0.5833333333333357  0.4083001692812189   F   F   F
  0.2494121952565448  0.7487495250984343  0.6071449739977451   T   T   T
 
  0.00000000E+00  0.00000000E+00  0.00000000E+00
  0.00000000E+00  0.00000000E+00  0.00000000E+00
  0.00000000E+00  0.00000000E+00  0.00000000E+00
  0.00000000E+00  0.00000000E+00  0.00000000E+00
  0.00000000E+00  0.00000000E+00  0.00000000E+00
  0.00000000E+00  0.00000000E+00  0.00000000E+00
  0.00000000E+00  0.00000000E+00  0.00000000E+00
  0.00000000E+00  0.00000000E+00  0.00000000E+00
  0.00000000E+00  0.00000000E+00  0.00000000E+00
  0.00000000E+00  0.00000000E+00  0.00000000E+00
  0.00000000E+00  0.00000000E+00  0.00000000E+00
  0.00000000E+00  0.00000000E+00  0.00000000E+00
  0.00000000E+00  0.00000000E+00  0.00000000E+00
  0.00000000E+00  0.00000000E+00  0.00000000E+00
  0.00000000E+00  0.00000000E+00  0.00000000E+00
  0.00000000E+00  0.00000000E+00  0.00000000E+00
  0.00000000E+00  0.00000000E+00  0.00000000E+00
  0.00000000E+00  0.00000000E+00  0.00000000E+00
  0.00000000E+00  0.00000000E+00  0.00000000E+00
  0.00000000E+00  0.00000000E+00  0.00000000E+00
  0.00000000E+00  0.00000000E+00  0.00000000E+00
  0.00000000E+00  0.00000000E+00  0.00000000E+00
  0.00000000E+00  0.00000000E+00  0.00000000E+00
  0.00000000E+00  0.00000000E+00  0.00000000E+00
  0.00000000E+00  0.00000000E+00  0.00000000E+00
  0.00000000E+00  0.00000000E+00  0.00000000E+00
  0.00000000E+00  0.00000000E+00  0.00000000E+00
  0.00000000E+00  0.00000000E+00  0.00000000E+00
  0.00000000E+00  0.00000000E+00  0.00000000E+00
  0.00000000E+00  0.00000000E+00  0.00000000E+00
  0.00000000E+00  0.00000000E+00  0.00000000E+00
  0.00000000E+00  0.00000000E+00  0.00000000E+00
  0.00000000E+00  0.00000000E+00  0.00000000E+00
  0.00000000E+00  0.00000000E+00  0.00000000E+00
  0.00000000E+00  0.00000000E+00  0.00000000E+00
  0.00000000E+00  0.00000000E+00  0.00000000E+00
  0.00000000E+00  0.00000000E+00  0.00000000E+00
  0.00000000E+00  0.00000000E+00  0.00000000E+00
  0.00000000E+00  0.00000000E+00  0.00000000E+00
  0.00000000E+00  0.00000000E+00  0.00000000E+00
  0.00000000E+00  0.00000000E+00  0.00000000E+00
  0.00000000E+00  0.00000000E+00  0.00000000E+00
  0.00000000E+00  0.00000000E+00  0.00000000E+00
  0.00000000E+00  0.00000000E+00  0.00000000E+00
  0.00000000E+00  0.00000000E+00  0.00000000E+00
  0.00000000E+00  0.00000000E+00  0.00000000E+00
  0.00000000E+00  0.00000000E+00  0.00000000E+00
  0.00000000E+00  0.00000000E+00  0.00000000E+00
