Au Pd                                   
   1.00000000000000     
    11.0025815152626798    0.0000000000000000    0.0000000000000000
     5.5012907576313399    9.5285150994265617    0.0000000000000000
     0.0000000000000000    0.0000000000000000   24.4917850942952882
   Au   Pd
    24    24
Direct
  0.3363093553465765  0.3301018310820006  0.3989308314934386
  0.8327064584438177  0.0860393416046219  0.3947934265328246
  0.6625115441773145  0.1708493985814316  0.5003619768313028
  0.6622750373487194  0.9169819048136759  0.4983719946398552
  0.7467842663522115  0.2523507507520196  0.6058026014302421
  0.3303832196729741  0.8351425158401450  0.3998849063341217
  0.2533566520389173  0.5009024120016877  0.6035344511363984
  0.1684036436231629  0.6674885099696656  0.4990342011445176
  0.3347769581376353  0.5826744602852385  0.3970830369122446
  0.2556052883046362  0.2474646355993707  0.6068367691561551
  0.1671866910043030  0.4161338676182018  0.5011471246300333
  0.2558308247446491 -0.0052934883819910  0.6047033082631021
  0.1683357930067934  0.1651567892029108  0.5028320256332960
  0.5807002291819554  0.8342147038638220  0.3957032767475026
  0.8319108354068713  0.8356766262236547  0.3901083025439185
  0.9161077754958771  0.9185227003938260  0.4987653681771095
  0.9155401134673133  0.1696264775089618  0.5030078493729213
 -0.0022750591886447  0.5030587874021502  0.6046637387435722
  0.9149728543747800  0.6660530301370129  0.4982514537284517
  0.0833082555246355  0.5840237387257717  0.3911185604823722
 -0.0004007338592875  0.2513521181424282  0.6078027052557445
  0.8317038698071431  0.5817462408543745  0.3960321476397218
  0.0824515713162337  0.3303730157380602  0.3978282052221709
  0.0015841249921684 -0.0037232194639783  0.6062639951845319
  0.5028833100336638  0.7474177284779726  0.5939568642928948
  0.7504317158748260 -0.0014325730660205  0.5967218925194400
  0.6657557696841209  0.6650677667469370  0.4981442378033600
  0.6650889561737724  0.4192375281330740  0.5018036704520634
  0.7499233896299400  0.5013979608945143  0.5960661263093763
  0.4167808336341741  0.9133029698865598  0.5002683468498840
  0.8315271671211031  0.3339887336926151  0.4057199162517512
  0.0821552570521987  0.0830354350587076  0.4062087537342552
  0.2536327026577662  0.7483341561446935  0.5965986242008255
  0.4173292259821157  0.6665029406839107  0.4985133786079697
  0.5845217318261612  0.5801130905838319  0.4045667881933088
  0.5016074398460627  0.2487557957722797  0.5974434414081882
  0.4164458535535502  0.4189281050259972  0.5001125569670863
  0.5843045235539442  0.3337352924510312  0.4039594060325604
  0.5030930531056581 -0.0018458868408629  0.5965554798350262
  0.4150487606615968  0.1677303678136480  0.5013486324323501
  0.5828873689948051  0.0839971588708226  0.4022468000966107
  0.1683759887756232  0.9161992774892759  0.5020909246298974
  0.3330651787311039  0.0831811231587895  0.4052728119281509
 -0.0000090317457643  0.7502813576908947  0.5961172493923934
  0.0815413410059401  0.8348077452289742  0.4017869370424472
  0.9141833137121449  0.4184299672492128  0.5009062928305549
  0.5008629643135328  0.5013717448789445  0.5954908258333992
  0.7484936171012024  0.7505450654791354  0.5952377851206565
 
  0.00000000E+00  0.00000000E+00  0.00000000E+00
  0.00000000E+00  0.00000000E+00  0.00000000E+00
  0.00000000E+00  0.00000000E+00  0.00000000E+00
  0.00000000E+00  0.00000000E+00  0.00000000E+00
  0.00000000E+00  0.00000000E+00  0.00000000E+00
  0.00000000E+00  0.00000000E+00  0.00000000E+00
  0.00000000E+00  0.00000000E+00  0.00000000E+00
  0.00000000E+00  0.00000000E+00  0.00000000E+00
  0.00000000E+00  0.00000000E+00  0.00000000E+00
  0.00000000E+00  0.00000000E+00  0.00000000E+00
  0.00000000E+00  0.00000000E+00  0.00000000E+00
  0.00000000E+00  0.00000000E+00  0.00000000E+00
  0.00000000E+00  0.00000000E+00  0.00000000E+00
  0.00000000E+00  0.00000000E+00  0.00000000E+00
  0.00000000E+00  0.00000000E+00  0.00000000E+00
  0.00000000E+00  0.00000000E+00  0.00000000E+00
  0.00000000E+00  0.00000000E+00  0.00000000E+00
  0.00000000E+00  0.00000000E+00  0.00000000E+00
  0.00000000E+00  0.00000000E+00  0.00000000E+00
  0.00000000E+00  0.00000000E+00  0.00000000E+00
  0.00000000E+00  0.00000000E+00  0.00000000E+00
  0.00000000E+00  0.00000000E+00  0.00000000E+00
  0.00000000E+00  0.00000000E+00  0.00000000E+00
  0.00000000E+00  0.00000000E+00  0.00000000E+00
  0.00000000E+00  0.00000000E+00  0.00000000E+00
  0.00000000E+00  0.00000000E+00  0.00000000E+00
  0.00000000E+00  0.00000000E+00  0.00000000E+00
  0.00000000E+00  0.00000000E+00  0.00000000E+00
  0.00000000E+00  0.00000000E+00  0.00000000E+00
  0.00000000E+00  0.00000000E+00  0.00000000E+00
  0.00000000E+00  0.00000000E+00  0.00000000E+00
  0.00000000E+00  0.00000000E+00  0.00000000E+00
  0.00000000E+00  0.00000000E+00  0.00000000E+00
  0.00000000E+00  0.00000000E+00  0.00000000E+00
  0.00000000E+00  0.00000000E+00  0.00000000E+00
  0.00000000E+00  0.00000000E+00  0.00000000E+00
  0.00000000E+00  0.00000000E+00  0.00000000E+00
  0.00000000E+00  0.00000000E+00  0.00000000E+00
  0.00000000E+00  0.00000000E+00  0.00000000E+00
  0.00000000E+00  0.00000000E+00  0.00000000E+00
  0.00000000E+00  0.00000000E+00  0.00000000E+00
  0.00000000E+00  0.00000000E+00  0.00000000E+00
  0.00000000E+00  0.00000000E+00  0.00000000E+00
  0.00000000E+00  0.00000000E+00  0.00000000E+00
  0.00000000E+00  0.00000000E+00  0.00000000E+00
  0.00000000E+00  0.00000000E+00  0.00000000E+00
  0.00000000E+00  0.00000000E+00  0.00000000E+00
  0.00000000E+00  0.00000000E+00  0.00000000E+00
