Au Pd                                   
   1.00000000000000     
    11.0025815152626798    0.0000000000000000    0.0000000000000000
     5.5012907576313399    9.5285150994265617    0.0000000000000000
     0.0000000000000000    0.0000000000000000   24.4917850942952882
   Au   Pd
    24    24
Direct
  0.0809108425454959  0.0833355165253768  0.3974993307521193
  0.6682616432386641  0.6671359064555367  0.4997594381498891
  0.7532065837562640  0.2507817052683287  0.6043008952216729
  0.6678526703839678  0.4153102248845326  0.5004200062727948
  0.8304003976588441  0.3354919679133342  0.3952127242099099
  0.7517038127401228 -0.0005931733690432  0.6067554859972494
  0.6684343173917862  0.1646766741756131  0.5004608687404869
  0.4148735141865679  0.9193778454133690  0.4993518468383372
  0.5844832165123287  0.8297526496668327  0.3920649648435089
  0.4136381640856682  0.6676258054319296  0.5008591473406133
  0.4983849430489206  0.2502631845774826  0.6028322129016350
  0.4148124881877274  0.4168844335915387  0.4998704021255634
  0.5848750126713762  0.0832519480549346  0.3949962464503132
  0.6678275107160885  0.9169818273987441  0.5003414201112556
  0.1622321796083189  0.9186430165055054  0.5011102056250917
  0.1665868765265190  0.4161033153465574  0.4985315436635941
  0.2529475483734615  0.7480791692174856  0.6055094372480405
  0.7511648834764321  0.7465443826827848  0.6049211314250009
  0.0803852315348207  0.5868774139687406  0.3985702288763157
  0.0025067930681445  0.7473459813800194  0.6029256627631153
  0.2507743543868187  0.0024574693325709  0.6035609728421463
  0.3313835625577570  0.0837601221819141  0.3954089694182497
  0.3324077965480789  0.3362219343635605  0.3937853628067597
  0.9185882884831236  0.4147541514025790  0.4989108072148595
  0.5021035867482728  0.7485934391291356  0.5985363784330280
  0.8330140100761362  0.0825014898286349  0.4041600288816790
  0.0012528530619781  0.2501557848443992  0.5956571186991754
  0.0811409064287796  0.3351771307901723  0.4000564928045788
  0.8320820427329236  0.5843834363269773  0.4023682732281913
  0.9173217828968073  0.1656207730059641  0.4996376668540615
  0.7519184673249777  0.4988666312441419  0.5982100595705291
  0.8332689304705106  0.8342021931831178  0.4046578412488135
  0.0016936332221544  0.0007845381340455  0.5985914676498977
  0.9180711651818876  0.6677060812557215  0.5016930771809288
  0.2516226310871555  0.2490066424795724  0.5943182082081290
  0.0819721988979283  0.8331801589316357  0.4051566900850069
  0.5809247945766141  0.5841083668819792  0.4020645732992432
  0.9162038504096931  0.9160190953173506  0.5028170780321045
  0.5821617920519462  0.3349938071579213  0.4022460677445758
  0.5010529990798988 -0.0008845156977463  0.5963534452524402
  0.4160577440095565  0.1668541485001545  0.4969213016607808
  0.1666936615297049  0.1661163414252599  0.4982141166796142
  0.3316814613088641  0.8325866082599899  0.4023140192545249
  0.2508154161625157  0.4984717238125749  0.5973150468377710
  0.1630381826627200  0.6683676336659041  0.5014489080224990
  0.3330327924707491  0.5856206360927242  0.4027636720078147
  0.0029812239951309  0.4960275557476249  0.5970861273526081
  0.5012512419257990  0.5004768273125165  0.5994530291734808
 
  0.00000000E+00  0.00000000E+00  0.00000000E+00
  0.00000000E+00  0.00000000E+00  0.00000000E+00
  0.00000000E+00  0.00000000E+00  0.00000000E+00
  0.00000000E+00  0.00000000E+00  0.00000000E+00
  0.00000000E+00  0.00000000E+00  0.00000000E+00
  0.00000000E+00  0.00000000E+00  0.00000000E+00
  0.00000000E+00  0.00000000E+00  0.00000000E+00
  0.00000000E+00  0.00000000E+00  0.00000000E+00
  0.00000000E+00  0.00000000E+00  0.00000000E+00
  0.00000000E+00  0.00000000E+00  0.00000000E+00
  0.00000000E+00  0.00000000E+00  0.00000000E+00
  0.00000000E+00  0.00000000E+00  0.00000000E+00
  0.00000000E+00  0.00000000E+00  0.00000000E+00
  0.00000000E+00  0.00000000E+00  0.00000000E+00
  0.00000000E+00  0.00000000E+00  0.00000000E+00
  0.00000000E+00  0.00000000E+00  0.00000000E+00
  0.00000000E+00  0.00000000E+00  0.00000000E+00
  0.00000000E+00  0.00000000E+00  0.00000000E+00
  0.00000000E+00  0.00000000E+00  0.00000000E+00
  0.00000000E+00  0.00000000E+00  0.00000000E+00
  0.00000000E+00  0.00000000E+00  0.00000000E+00
  0.00000000E+00  0.00000000E+00  0.00000000E+00
  0.00000000E+00  0.00000000E+00  0.00000000E+00
  0.00000000E+00  0.00000000E+00  0.00000000E+00
  0.00000000E+00  0.00000000E+00  0.00000000E+00
  0.00000000E+00  0.00000000E+00  0.00000000E+00
  0.00000000E+00  0.00000000E+00  0.00000000E+00
  0.00000000E+00  0.00000000E+00  0.00000000E+00
  0.00000000E+00  0.00000000E+00  0.00000000E+00
  0.00000000E+00  0.00000000E+00  0.00000000E+00
  0.00000000E+00  0.00000000E+00  0.00000000E+00
  0.00000000E+00  0.00000000E+00  0.00000000E+00
  0.00000000E+00  0.00000000E+00  0.00000000E+00
  0.00000000E+00  0.00000000E+00  0.00000000E+00
  0.00000000E+00  0.00000000E+00  0.00000000E+00
  0.00000000E+00  0.00000000E+00  0.00000000E+00
  0.00000000E+00  0.00000000E+00  0.00000000E+00
  0.00000000E+00  0.00000000E+00  0.00000000E+00
  0.00000000E+00  0.00000000E+00  0.00000000E+00
  0.00000000E+00  0.00000000E+00  0.00000000E+00
  0.00000000E+00  0.00000000E+00  0.00000000E+00
  0.00000000E+00  0.00000000E+00  0.00000000E+00
  0.00000000E+00  0.00000000E+00  0.00000000E+00
  0.00000000E+00  0.00000000E+00  0.00000000E+00
  0.00000000E+00  0.00000000E+00  0.00000000E+00
  0.00000000E+00  0.00000000E+00  0.00000000E+00
  0.00000000E+00  0.00000000E+00  0.00000000E+00
  0.00000000E+00  0.00000000E+00  0.00000000E+00
