Au Pd                                   
   1.00000000000000     
    11.0025815152626798    0.0000000000000000    0.0000000000000000
     5.5012907576313399    9.5285150994265617    0.0000000000000000
     0.0000000000000000    0.0000000000000000   24.4917850942952882
   Au   Pd
    24    24
Selective dynamics
Direct
  0.7458616632513732  0.7519816406318983  0.6165401029395245   T   T   T
  0.9156044794115679  0.9185054726480365  0.5080712094054376   T   T   T
  0.6660105548287173  0.6662042704860572  0.5084960099916785   T   T   T
 -0.0002780047224658  0.5004174241299935  0.6163102045522246   T   T   T
  0.0833333333333357  0.5833333333333357  0.4083001692812189   F   F   F
  0.9170127325227054  0.6666230460343766  0.5123005954824724   T   T   T
  0.3333333333333357  0.0833333333333357  0.4083001692812189   F   F   F
  0.0010130007328241  0.2490397724158475  0.6112124222993091   T   T   T
  0.9188301739449317  0.4125070195414172  0.5081736608251578   T   T   T
  0.0022786466702940 -0.0013465945759065  0.6113079824223545   T   T   T
  0.0017659237359945  0.7500480017467964  0.6167435606608682   T   T   T
  0.6667279015138622  0.4131217064645023  0.5059029600509486   T   T   T
  0.4165430671274313  0.6648180429873690  0.5057872374727993   T   T   T
  0.7487308888302239  0.2515061313110518  0.6094084399635077   T   T   T
  0.1701319702613405  0.4125691079664194  0.5080291457277019   T   T   T
  0.2518070375077583  0.2479378994193990  0.6108972316391859   T   T   T
  0.1685806312748940  0.6654111656539363  0.5080381878926957   T   T   T
  0.1651333658996997  0.9198958286507125  0.5063138502263682   T   T   T
  0.6659499537271196  0.9181837211628233  0.5083908846988827   T   T   T
  0.5833333333333357  0.0833333333333357  0.4083001692812189   F   F   F
  0.8333333333333357  0.0833333333333357  0.4083001692812189   F   F   F
  0.4154453297094808  0.9187772106072766  0.5077637853929325   T   T   T
  0.4996047318969932  0.2511613127353869  0.6081789296113445   T   T   T
  0.8333333333333357  0.5833333333333357  0.4083001692812189   F   F   F
  0.3333333333333357  0.8333333333333357  0.4083001692812189   F   F   F
  0.2509690508239533  0.5011229190010293  0.6050193703486624   T   T   T
  0.3333333333333357  0.5833333333333357  0.4083001692812189   F   F   F
  0.3333333333333357  0.3333333333333357  0.4083001692812189   F   F   F
  0.9167553162800363  0.1666947450398373  0.5075711117705379   T   T   T
  0.1664774934866750  0.1667510863536653  0.5074881713158257   T   T   T
  0.0833333333333357  0.8333333333333357  0.4083001692812189   F   F   F
  0.0833333333333357  0.3333333333333357  0.4083001692812189   F   F   F
  0.4167540798768544  0.1680823035838989  0.5084026943949247   T   T   T
  0.2528246521377032 -0.0023429588249382  0.6052308507014721   T   T   T
  0.5000717792346689 -0.0008064005798443  0.6055680512160556   T   T   T
  0.8333333333333357  0.8333333333333357  0.4083001692812189   F   F   F
  0.4178500448149168  0.4135310950207564  0.5059855423182309   T   T   T
  0.0833333333333357  0.0833333333333357  0.4083001692812189   F   F   F
  0.8333333333333357  0.3333333333333357  0.4083001692812189   F   F   F
  0.5833333333333357  0.8333333333333357  0.4083001692812189   F   F   F
  0.4986699298334085  0.7499942116944333  0.6056796786311106   T   T   T
  0.7478673454293966  0.5014218704746263  0.6058994200349233   T   T   T
  0.4986874680723233  0.5023559638942507  0.6038044221870782   T   T   T
  0.6650588361532230  0.1677375256320966  0.5082165109397339   T   T   T
  0.7493954950433229 -0.0004507070579337  0.6062075356270944   T   T   T
  0.5833333333333357  0.5833333333333357  0.4083001692812189   F   F   F
  0.5833333333333357  0.3333333333333357  0.4083001692812189   F   F   F
  0.2519566373775417  0.7492180912366829  0.6053036731422079   T   T   T
 
  0.00000000E+00  0.00000000E+00  0.00000000E+00
  0.00000000E+00  0.00000000E+00  0.00000000E+00
  0.00000000E+00  0.00000000E+00  0.00000000E+00
  0.00000000E+00  0.00000000E+00  0.00000000E+00
  0.00000000E+00  0.00000000E+00  0.00000000E+00
  0.00000000E+00  0.00000000E+00  0.00000000E+00
  0.00000000E+00  0.00000000E+00  0.00000000E+00
  0.00000000E+00  0.00000000E+00  0.00000000E+00
  0.00000000E+00  0.00000000E+00  0.00000000E+00
  0.00000000E+00  0.00000000E+00  0.00000000E+00
  0.00000000E+00  0.00000000E+00  0.00000000E+00
  0.00000000E+00  0.00000000E+00  0.00000000E+00
  0.00000000E+00  0.00000000E+00  0.00000000E+00
  0.00000000E+00  0.00000000E+00  0.00000000E+00
  0.00000000E+00  0.00000000E+00  0.00000000E+00
  0.00000000E+00  0.00000000E+00  0.00000000E+00
  0.00000000E+00  0.00000000E+00  0.00000000E+00
  0.00000000E+00  0.00000000E+00  0.00000000E+00
  0.00000000E+00  0.00000000E+00  0.00000000E+00
  0.00000000E+00  0.00000000E+00  0.00000000E+00
  0.00000000E+00  0.00000000E+00  0.00000000E+00
  0.00000000E+00  0.00000000E+00  0.00000000E+00
  0.00000000E+00  0.00000000E+00  0.00000000E+00
  0.00000000E+00  0.00000000E+00  0.00000000E+00
  0.00000000E+00  0.00000000E+00  0.00000000E+00
  0.00000000E+00  0.00000000E+00  0.00000000E+00
  0.00000000E+00  0.00000000E+00  0.00000000E+00
  0.00000000E+00  0.00000000E+00  0.00000000E+00
  0.00000000E+00  0.00000000E+00  0.00000000E+00
  0.00000000E+00  0.00000000E+00  0.00000000E+00
  0.00000000E+00  0.00000000E+00  0.00000000E+00
  0.00000000E+00  0.00000000E+00  0.00000000E+00
  0.00000000E+00  0.00000000E+00  0.00000000E+00
  0.00000000E+00  0.00000000E+00  0.00000000E+00
  0.00000000E+00  0.00000000E+00  0.00000000E+00
  0.00000000E+00  0.00000000E+00  0.00000000E+00
  0.00000000E+00  0.00000000E+00  0.00000000E+00
  0.00000000E+00  0.00000000E+00  0.00000000E+00
  0.00000000E+00  0.00000000E+00  0.00000000E+00
  0.00000000E+00  0.00000000E+00  0.00000000E+00
  0.00000000E+00  0.00000000E+00  0.00000000E+00
  0.00000000E+00  0.00000000E+00  0.00000000E+00
  0.00000000E+00  0.00000000E+00  0.00000000E+00
  0.00000000E+00  0.00000000E+00  0.00000000E+00
  0.00000000E+00  0.00000000E+00  0.00000000E+00
  0.00000000E+00  0.00000000E+00  0.00000000E+00
  0.00000000E+00  0.00000000E+00  0.00000000E+00
  0.00000000E+00  0.00000000E+00  0.00000000E+00
