Au Pd                                   
   1.00000000000000     
    11.0025815152626798    0.0000000000000000    0.0000000000000000
     5.5012907576313399    9.5285150994265617    0.0000000000000000
     0.0000000000000000    0.0000000000000000   24.4917850942952882
   Au   Pd
    24    24
Direct
  0.5809113341739961  0.5844175021811640  0.3987807819218060
  0.5825713560773452  0.0871190157066992  0.3968516534169326
  0.2501598958080694  0.4998547215524398  0.6075470463716761
  0.1664886618271278  0.6676080092479464  0.5009082501325159
  0.3310353869202677  0.5851601635297718  0.3969230257084703
  0.4187631495687467  0.1649320719339772  0.4998428418283625
  0.1637243941091713  0.4181903462497967  0.4999721731019842
  0.5006912979402349  0.4998763608450624  0.6013937762896405
  0.8338231622274379  0.3311161873181467  0.3976183179612653
  0.1647835071715228  0.1660363437536968  0.5004371963136781
  0.5019572304280328  0.0005425689890435  0.6020400036981578
  0.7492298761253027  0.2486154929582172  0.6025733628372474
  0.9143113579102150  0.9163789535077258  0.5003502815664940
  0.8352002853524001  0.5835284830752071  0.3977655914877956
 -0.0018249607095432  0.5018037781608781  0.6010030439200891
  0.5805082407094704  0.8360050392758636  0.3971941236109232
  0.4190891415302076  0.4160828114968199  0.5002878065513159
  0.0012713571700955  0.2500352704140428  0.6037151993038584
  0.8362393196878386  0.8344305137779063  0.3965706976601541
  0.0865568538590111  0.3316707589215026  0.3954403867547652
  0.0027781878971952 -0.0041061429877857  0.6058653773902873
  0.9139033118821855  0.1681165493146686  0.5004804136584594
  0.5019030991479108  0.7489675944214093  0.6017827637447890
  0.4170563452296740  0.9134490053830863  0.5004321546032646
  0.0846478875138973  0.0809936207621119  0.4033250879026724
  0.6666740115586433  0.1658598804461025  0.4999204919981706
  0.6662634695507420  0.4179391300872191  0.4993264932121753
  0.6671038087784706  0.6655603710670343  0.4981341182224407
  0.7507723666338567  0.5003960715609377  0.5942668223490114
  0.8339966357906936  0.0840240500416481  0.4027351001517870
  0.7504662315871603 -0.0018523838620145  0.5964577472913984
  0.2503999996134589  0.7498024284463016  0.5979206074328376
  0.5007739416062883  0.2486710625314918  0.5981296543724101
  0.5839261328133453  0.3332458950729139  0.4029876048184939
  0.6670008348375644  0.9149567489750432  0.4979817292020886
  0.1659806933968534  0.9156032364459813  0.5020938254111699
  0.3299451514070673  0.8363379720709162  0.4040087657873584
  0.2509370396909982  0.2495163668064163  0.5983453884146218
  0.3332432972185384  0.3343366394441686  0.4020817164119889
  0.2509147469710473 -0.0008061564904732  0.5991726962274738
  0.3322058944602420  0.0839776618531777  0.4021132986261904
 -0.0007933005247820  0.7500643127420007  0.5978643786817862
  0.0837293629764194  0.8358827483943267  0.4033969988459999
  0.9130663969876718  0.6666970167995921  0.4990706183386185
  0.0843735157725388  0.5842723094939203  0.4025210235199103
  0.9141670480597398  0.4183162984939809  0.4983521818040060
  0.4175280636600866  0.6664000107409679  0.4997386511108645
  0.7515449775955423  0.7499733090489480  0.5942787300325921
 
  0.00000000E+00  0.00000000E+00  0.00000000E+00
  0.00000000E+00  0.00000000E+00  0.00000000E+00
  0.00000000E+00  0.00000000E+00  0.00000000E+00
  0.00000000E+00  0.00000000E+00  0.00000000E+00
  0.00000000E+00  0.00000000E+00  0.00000000E+00
  0.00000000E+00  0.00000000E+00  0.00000000E+00
  0.00000000E+00  0.00000000E+00  0.00000000E+00
  0.00000000E+00  0.00000000E+00  0.00000000E+00
  0.00000000E+00  0.00000000E+00  0.00000000E+00
  0.00000000E+00  0.00000000E+00  0.00000000E+00
  0.00000000E+00  0.00000000E+00  0.00000000E+00
  0.00000000E+00  0.00000000E+00  0.00000000E+00
  0.00000000E+00  0.00000000E+00  0.00000000E+00
  0.00000000E+00  0.00000000E+00  0.00000000E+00
  0.00000000E+00  0.00000000E+00  0.00000000E+00
  0.00000000E+00  0.00000000E+00  0.00000000E+00
  0.00000000E+00  0.00000000E+00  0.00000000E+00
  0.00000000E+00  0.00000000E+00  0.00000000E+00
  0.00000000E+00  0.00000000E+00  0.00000000E+00
  0.00000000E+00  0.00000000E+00  0.00000000E+00
  0.00000000E+00  0.00000000E+00  0.00000000E+00
  0.00000000E+00  0.00000000E+00  0.00000000E+00
  0.00000000E+00  0.00000000E+00  0.00000000E+00
  0.00000000E+00  0.00000000E+00  0.00000000E+00
  0.00000000E+00  0.00000000E+00  0.00000000E+00
  0.00000000E+00  0.00000000E+00  0.00000000E+00
  0.00000000E+00  0.00000000E+00  0.00000000E+00
  0.00000000E+00  0.00000000E+00  0.00000000E+00
  0.00000000E+00  0.00000000E+00  0.00000000E+00
  0.00000000E+00  0.00000000E+00  0.00000000E+00
  0.00000000E+00  0.00000000E+00  0.00000000E+00
  0.00000000E+00  0.00000000E+00  0.00000000E+00
  0.00000000E+00  0.00000000E+00  0.00000000E+00
  0.00000000E+00  0.00000000E+00  0.00000000E+00
  0.00000000E+00  0.00000000E+00  0.00000000E+00
  0.00000000E+00  0.00000000E+00  0.00000000E+00
  0.00000000E+00  0.00000000E+00  0.00000000E+00
  0.00000000E+00  0.00000000E+00  0.00000000E+00
  0.00000000E+00  0.00000000E+00  0.00000000E+00
  0.00000000E+00  0.00000000E+00  0.00000000E+00
  0.00000000E+00  0.00000000E+00  0.00000000E+00
  0.00000000E+00  0.00000000E+00  0.00000000E+00
  0.00000000E+00  0.00000000E+00  0.00000000E+00
  0.00000000E+00  0.00000000E+00  0.00000000E+00
  0.00000000E+00  0.00000000E+00  0.00000000E+00
  0.00000000E+00  0.00000000E+00  0.00000000E+00
  0.00000000E+00  0.00000000E+00  0.00000000E+00
  0.00000000E+00  0.00000000E+00  0.00000000E+00
