NWRITE = 1
LWAVE =  .FALSE.  ! write WAVECAR?
LCHARG = .FALSE.  ! write CHGCAR?
LVTOT =  .FALSE.  ! write LOCPOT?
LORBIT = 0 ! write PROCAR?
LDIPOL = .TRUE.  ! dipole?
LMONO = .FALSE.  ! monopole?
LAECHG = .FALSE.  ! write core electrons?

# GGA
GGA = PE          ! optPBE-vdW XC-functional used
#IVDW = 12

# Dipol correction
IDIPOL = 3
DIPOL= 0 0  0.5

# Electronic relaxation
ENCUT = 400       ! Energy cutoff in eV
ALGO = Fast
ISMEAR = 0        ! 0: Gaussian, electron smearing
VOSKOWN = 1       ! Default for PBE, RPBE
SIGMA  = 0.1      ! If gas phase, set to 0.01
PREC   = Normal     
LREAL  = Auto
ISTART = 0
NELM   = 500
EDIFF  = 1e-6  ! This and EDIFFG are the tolerance parameters
#ISPIN  = 2     ! polarization? y
ISYM = 2 

# Ionic relaxation
NSW    = 500   ! # of steps in optimization (default 0!)
ISIF   = 0     ! 0: relax ions, 1,2:relax ions,calc stresses, 3:relax ion+cell
IBRION = 2   ! 1: quasi-NR, 2:CG algorithm for ions
NFREE  = 2   ! number of DIIS vectors to save
POTIM  = 0.35  ! reduce trial step in optimization
EDIFFG = -0.02 ! For high accuracy, use -0.01 or -0.02

Parallel
NPAR = 6  
LPLANE = .TRUE.
 
