Au Pd                                   
   1.00000000000000     
    11.0025815152626798    0.0000000000000000    0.0000000000000000
     5.5012907576313399    9.5285150994265617    0.0000000000000000
     0.0000000000000000    0.0000000000000000   24.4917850942952882
   Au   Pd
    24    24
Selective dynamics
Direct
  0.0833333333333357  0.0833333333333357  0.4083001692812189   F   F   F
  0.0833333333333357  0.5833333333333357  0.4083001692812189   F   F   F
 -0.0033569282374362  0.2529637337291125  0.6109380331025720   T   T   T
  0.9184316320069380  0.9156460561686844  0.5104248753425659   T   T   T
  0.3333333333333357  0.0833333333333357  0.4083001692812189   F   F   F
  0.9171144633536866  0.1696649442239949  0.5098399323988900   T   T   T
  0.2484430720019604 -0.0013125932672553  0.6083643244328528   T   T   T
  0.7542210567909546  0.7466636830013289  0.6144169739354002   T   T   T
  0.1653367127243807  0.4143667983621185  0.5090246749152181   T   T   T
  0.2493397028717668  0.2531138123483626  0.6119163783417352   T   T   T
  0.1671513083876628  0.6666241009550040  0.5075761763994728   T   T   T
  0.6641227959325009  0.9163691399635848  0.5102219067145832   T   T   T
  0.3333333333333357  0.3333333333333357  0.4083001692812189   F   F   F
  0.5004845551138251  0.0007328122831077  0.6123154847996269   T   T   T
  0.5833333333333357  0.3333333333333357  0.4083001692812189   F   F   F
  0.5833333333333357  0.5833333333333357  0.4083001692812189   F   F   F
  0.4159071129768729  0.6675003912503255  0.5077655305529887   T   T   T
  0.5000147018800061  0.7464379523561316  0.6117814864262956   T   T   T
  0.8333333333333357  0.0833333333333357  0.4083001692812189   F   F   F
  0.6636276725005275  0.1691986916286898  0.5123043179550354   T   T   T
  0.7526184186032111  0.0012336905691173  0.6167110881786433   T   T   T
  0.6686700155384924  0.6653244954319119  0.5076842896620124   T   T   T
  0.8333333333333357  0.8333333333333357  0.4083001692812189   F   F   F
  0.5833333333333357  0.0833333333333357  0.4083001692812189   F   F   F
  0.4167268839454686  0.4159666229289428  0.5083941880136007   T   T   T
  0.0833333333333357  0.8333333333333357  0.4083001692812189   F   F   F
  0.4150672381712628  0.1667257486505863  0.5107542529820154   T   T   T
  0.0024034492785399  0.7478365553211124  0.6065644169000495   T   T   T
  0.3333333333333357  0.5833333333333357  0.4083001692812189   F   F   F
  0.3333333333333357  0.8333333333333357  0.4083001692812189   F   F   F
  0.2501691932686630  0.5012058998872138  0.6052639954150781   T   T   T
  0.1676992768189608  0.1659365722036917  0.5086606487450037   T   T   T
  0.4986998357637605  0.2530001041993665  0.6072257608997684   T   T   T
  0.1677998606055546  0.9180424728646144  0.5073887256362059   T   T   T
 -0.0006598789730966  0.5010367397184158  0.6052700986698368   T   T   T
  0.0833333333333357  0.3333333333333357  0.4083001692812189   F   F   F
  0.5007913654528182  0.4976316547963551  0.6044844640506700   T   T   T
  0.4145850757144279  0.9184121336471655  0.5075123780731732   T   T   T
  0.9171787415227202  0.4157268607246705  0.5060983002006387   T   T   T
  0.8333333333333357  0.3333333333333357  0.4083001692812189   F   F   F
  0.6667503827494958  0.4167091032901354  0.5077531383822210   T   T   T
  0.7476445060894586  0.2526381380928979  0.6070794615479268   T   T   T
  0.8333333333333357  0.5833333333333357  0.4083001692812189   F   F   F
  0.0006568087788744 -0.0013427938166240  0.6066167413638844   T   T   T
  0.7501250804198071  0.4997968571892569  0.6041935796079738   T   T   T
  0.5833333333333357  0.8333333333333357  0.4083001692812189   F   F   F
  0.9157234742686012  0.6658493127509038  0.5088779818404147   T   T   T
  0.2488055462582044  0.7484454655060406  0.6053382860230774   T   T   T
 
  0.00000000E+00  0.00000000E+00  0.00000000E+00
  0.00000000E+00  0.00000000E+00  0.00000000E+00
  0.00000000E+00  0.00000000E+00  0.00000000E+00
  0.00000000E+00  0.00000000E+00  0.00000000E+00
  0.00000000E+00  0.00000000E+00  0.00000000E+00
  0.00000000E+00  0.00000000E+00  0.00000000E+00
  0.00000000E+00  0.00000000E+00  0.00000000E+00
  0.00000000E+00  0.00000000E+00  0.00000000E+00
  0.00000000E+00  0.00000000E+00  0.00000000E+00
  0.00000000E+00  0.00000000E+00  0.00000000E+00
  0.00000000E+00  0.00000000E+00  0.00000000E+00
  0.00000000E+00  0.00000000E+00  0.00000000E+00
  0.00000000E+00  0.00000000E+00  0.00000000E+00
  0.00000000E+00  0.00000000E+00  0.00000000E+00
  0.00000000E+00  0.00000000E+00  0.00000000E+00
  0.00000000E+00  0.00000000E+00  0.00000000E+00
  0.00000000E+00  0.00000000E+00  0.00000000E+00
  0.00000000E+00  0.00000000E+00  0.00000000E+00
  0.00000000E+00  0.00000000E+00  0.00000000E+00
  0.00000000E+00  0.00000000E+00  0.00000000E+00
  0.00000000E+00  0.00000000E+00  0.00000000E+00
  0.00000000E+00  0.00000000E+00  0.00000000E+00
  0.00000000E+00  0.00000000E+00  0.00000000E+00
  0.00000000E+00  0.00000000E+00  0.00000000E+00
  0.00000000E+00  0.00000000E+00  0.00000000E+00
  0.00000000E+00  0.00000000E+00  0.00000000E+00
  0.00000000E+00  0.00000000E+00  0.00000000E+00
  0.00000000E+00  0.00000000E+00  0.00000000E+00
  0.00000000E+00  0.00000000E+00  0.00000000E+00
  0.00000000E+00  0.00000000E+00  0.00000000E+00
  0.00000000E+00  0.00000000E+00  0.00000000E+00
  0.00000000E+00  0.00000000E+00  0.00000000E+00
  0.00000000E+00  0.00000000E+00  0.00000000E+00
  0.00000000E+00  0.00000000E+00  0.00000000E+00
  0.00000000E+00  0.00000000E+00  0.00000000E+00
  0.00000000E+00  0.00000000E+00  0.00000000E+00
  0.00000000E+00  0.00000000E+00  0.00000000E+00
  0.00000000E+00  0.00000000E+00  0.00000000E+00
  0.00000000E+00  0.00000000E+00  0.00000000E+00
  0.00000000E+00  0.00000000E+00  0.00000000E+00
  0.00000000E+00  0.00000000E+00  0.00000000E+00
  0.00000000E+00  0.00000000E+00  0.00000000E+00
  0.00000000E+00  0.00000000E+00  0.00000000E+00
  0.00000000E+00  0.00000000E+00  0.00000000E+00
  0.00000000E+00  0.00000000E+00  0.00000000E+00
  0.00000000E+00  0.00000000E+00  0.00000000E+00
  0.00000000E+00  0.00000000E+00  0.00000000E+00
  0.00000000E+00  0.00000000E+00  0.00000000E+00
