Au  O Pd                                
   1.00000000000000     
    11.0025815152626798    0.0000000000000000    0.0000000000000000
     5.5012907576313399    9.5285150994265617    0.0000000000000000
     0.0000000000000000    0.0000000000000000   26.1917850942952910
   Au   O    Pd
    24     8    24
Selective dynamics
Direct
  0.0833333333333357  0.0833333333333357  0.3817991009012260   F   F   F
  0.6695121339739181  0.1672691692389586  0.4748738761859228   T   T   T
  0.6681599740627030  0.6655139401988629  0.4832627457639039   T   T   T
  0.0132465347314531 -0.0182858653493156  0.5602236031227980   T   T   T
  0.8333333333333357  0.5833333333333357  0.3817991009012260   F   F   F
  0.0833333333333357  0.3333333333333357  0.3817991009012260   F   F   F
  0.0204619728413578  0.2294917300523889  0.5663512616995666   T   T   T
  0.7544277196714385  0.2382438446836324  0.5632897832325131   T   T   T
  0.8333333333333357  0.3333333333333357  0.3817991009012260   F   F   F
  0.9204419057148654  0.6653076873839326  0.4766468686923888   T   T   T
  0.0163720990808689  0.4751617480107125  0.5653309808654255   T   T   T
  0.5833333333333357  0.0833333333333357  0.3817991009012260   F   F   F
  0.7625517201895957  0.9749249215068251  0.5603856018438789   T   T   T
  0.4936128715280058  0.7999026514721471  0.6552543357082362   T   T   T
  0.4210354390624796  0.9050107298047390  0.4700669885327086   T   T   T
  0.4170865873370764  0.6625730793251540  0.5102396821810326   T   T   T
  0.5833333333333357  0.5833333333333357  0.3817991009012260   F   F   F
  0.2699126909487507 -0.0402014799937296  0.5612817620635552   T   T   T
  0.4705253892881056  0.2426346789774054  0.5998053829582247   T   T   T
  0.1743567478897338  0.4129941284695349  0.4740260664744598   T   T   T
  0.5833333333333357  0.3333333333333357  0.3817991009012260   F   F   F
  0.5254197016719856 -0.0584735603656208  0.5626330313167278   T   T   T
  0.4215848384230141  0.1628768189875520  0.4737725323519112   T   T   T
  0.2751453231820311  0.4837543004671960  0.5637584475274304   T   T   T
 -0.0347780148545176  0.6321642428533011  0.6247989058389797   T   T   T
  0.0748522651025732  0.8294117151383908  0.6185207919237528   T   T   T
  0.3267558502483170  0.5576980764994915  0.6306840570093140   T   T   T
  0.2875743055998283  0.9261841822162894  0.6446992971917622   T   T   T
  0.6873239752337778  0.7067342724080462  0.6762576966303017   T   T   T
  0.6062950182095229  0.0370989378750830  0.6188337066470077   T   T   T
  0.8423085643268946  0.3433804396367163  0.6139438348543060   T   T   T
  0.6031663923623949  0.3179585696052852  0.6230425702511988   T   T   T
  0.3333333333333357  0.3333333333333357  0.3817991009012260   F   F   F
  0.0131464967123310  0.7266041291107864  0.5686997783505710   T   T   T
  0.4209973224945385  0.4225990271856699  0.4717976553952185   T   T   T
  0.2739804372816759  0.2145812858696298  0.5608882342193163   T   T   T
  0.3333333333333357  0.5833333333333357  0.3817991009012260   F   F   F
  0.1745374759172164  0.6652856327879112  0.4737369698675304   T   T   T
  0.7634451446197916  0.7213426875762399  0.6114740019006238   T   T   T
  0.2773771332135353  0.7548037650291141  0.6335383104793785   T   T   T
  0.5158476808185213  0.5193064116881634  0.6065629590743022   T   T   T
  0.1749993654666827  0.9034839202836195  0.4700222960294876   T   T   T
  0.5833333333333357  0.8333333333333357  0.3817991009012260   F   F   F
  0.3333333333333357  0.8333333333333357  0.3817991009012260   F   F   F
  0.9233304769775957  0.9091525206846975  0.4715962230079503   T   T   T
  0.8333333333333357  0.0833333333333357  0.3817991009012260   F   F   F
  0.0833333333333357  0.8333333333333357  0.3817991009012260   F   F   F
  0.0833333333333357  0.5833333333333357  0.3817991009012260   F   F   F
  0.6653339263979010  0.4214201501822435  0.4764583638589641   T   T   T
  0.9201866294282013  0.4117198985304250  0.4754714883759418   T   T   T
  0.9206522057128425  0.1600474959490501  0.4753665491228145   T   T   T
  0.7399526051052472  0.5068882364644184  0.5669747374873468   T   T   T
  0.8333333333333357  0.8333333333333357  0.3817991009012260   F   F   F
  0.6714107204181808  0.9109079087100814  0.4701553290204673   T   T   T
  0.1689901040239785  0.1574840228426954  0.4747543421336148   T   T   T
  0.3333333333333357  0.0833333333333357  0.3817991009012260   F   F   F
 
  0.00000000E+00  0.00000000E+00  0.00000000E+00
  0.00000000E+00  0.00000000E+00  0.00000000E+00
  0.00000000E+00  0.00000000E+00  0.00000000E+00
  0.00000000E+00  0.00000000E+00  0.00000000E+00
  0.00000000E+00  0.00000000E+00  0.00000000E+00
  0.00000000E+00  0.00000000E+00  0.00000000E+00
  0.00000000E+00  0.00000000E+00  0.00000000E+00
  0.00000000E+00  0.00000000E+00  0.00000000E+00
  0.00000000E+00  0.00000000E+00  0.00000000E+00
  0.00000000E+00  0.00000000E+00  0.00000000E+00
  0.00000000E+00  0.00000000E+00  0.00000000E+00
  0.00000000E+00  0.00000000E+00  0.00000000E+00
  0.00000000E+00  0.00000000E+00  0.00000000E+00
  0.00000000E+00  0.00000000E+00  0.00000000E+00
  0.00000000E+00  0.00000000E+00  0.00000000E+00
  0.00000000E+00  0.00000000E+00  0.00000000E+00
  0.00000000E+00  0.00000000E+00  0.00000000E+00
  0.00000000E+00  0.00000000E+00  0.00000000E+00
  0.00000000E+00  0.00000000E+00  0.00000000E+00
  0.00000000E+00  0.00000000E+00  0.00000000E+00
  0.00000000E+00  0.00000000E+00  0.00000000E+00
  0.00000000E+00  0.00000000E+00  0.00000000E+00
  0.00000000E+00  0.00000000E+00  0.00000000E+00
  0.00000000E+00  0.00000000E+00  0.00000000E+00
  0.00000000E+00  0.00000000E+00  0.00000000E+00
  0.00000000E+00  0.00000000E+00  0.00000000E+00
  0.00000000E+00  0.00000000E+00  0.00000000E+00
  0.00000000E+00  0.00000000E+00  0.00000000E+00
  0.00000000E+00  0.00000000E+00  0.00000000E+00
  0.00000000E+00  0.00000000E+00  0.00000000E+00
  0.00000000E+00  0.00000000E+00  0.00000000E+00
  0.00000000E+00  0.00000000E+00  0.00000000E+00
  0.00000000E+00  0.00000000E+00  0.00000000E+00
  0.00000000E+00  0.00000000E+00  0.00000000E+00
  0.00000000E+00  0.00000000E+00  0.00000000E+00
  0.00000000E+00  0.00000000E+00  0.00000000E+00
  0.00000000E+00  0.00000000E+00  0.00000000E+00
  0.00000000E+00  0.00000000E+00  0.00000000E+00
  0.00000000E+00  0.00000000E+00  0.00000000E+00
  0.00000000E+00  0.00000000E+00  0.00000000E+00
  0.00000000E+00  0.00000000E+00  0.00000000E+00
  0.00000000E+00  0.00000000E+00  0.00000000E+00
  0.00000000E+00  0.00000000E+00  0.00000000E+00
  0.00000000E+00  0.00000000E+00  0.00000000E+00
  0.00000000E+00  0.00000000E+00  0.00000000E+00
  0.00000000E+00  0.00000000E+00  0.00000000E+00
  0.00000000E+00  0.00000000E+00  0.00000000E+00
  0.00000000E+00  0.00000000E+00  0.00000000E+00
  0.00000000E+00  0.00000000E+00  0.00000000E+00
  0.00000000E+00  0.00000000E+00  0.00000000E+00
  0.00000000E+00  0.00000000E+00  0.00000000E+00
  0.00000000E+00  0.00000000E+00  0.00000000E+00
  0.00000000E+00  0.00000000E+00  0.00000000E+00
  0.00000000E+00  0.00000000E+00  0.00000000E+00
  0.00000000E+00  0.00000000E+00  0.00000000E+00
  0.00000000E+00  0.00000000E+00  0.00000000E+00
