Au Pd                                   
   1.00000000000000     
    11.0025815152626798    0.0000000000000000    0.0000000000000000
     5.5012907576313399    9.5285150994265617    0.0000000000000000
     0.0000000000000000    0.0000000000000000   24.4917850942952882
   Au   Pd
    24    24
Selective dynamics
Direct
  0.2500964777266271  0.7483655117279420  0.6168534485754203   T   T   T
  0.9133413393634325  0.9184845849638255  0.5081416436183714   T   T   T
 -0.0020811506744681  0.5043983932091571  0.6119959223951765   T   T   T
  0.8333333333333357  0.8333333333333357  0.4083001692812189   F   F   F
  0.9141390973577737  0.4182825274794681  0.5082630079915512   T   T   T
  0.0833333333333357  0.5833333333333357  0.4083001692812189   F   F   F
 -0.0007211494947338  0.2516836042870418  0.6160766653928722   T   T   T
  0.0833333333333357  0.3333333333333357  0.4083001692812189   F   F   F
 -0.0012621637648606 -0.0015725293828710  0.6162356329750921   T   T   T
  0.9128676488141750  0.1688912532368363  0.5057983511626742   T   T   T
  0.6683371088390844  0.6673509530974396  0.5093796725579260   T   T   T
  0.7491286643352182  0.2484617089755438  0.6090873800749717   T   T   T
  0.4176068370483810  0.6639591332945295  0.5105014351822518   T   T   T
  0.2535551925809534 -0.0017043034373602  0.6180458330662801   T   T   T
  0.5833333333333357  0.5833333333333357  0.4083001692812189   F   F   F
  0.1708714369077747  0.4151717113984414  0.5097562221190095   T   T   T
  0.2544723703840756  0.2489048211258688  0.6129258141255464   T   T   T
  0.1672373331126111  0.6661839333547949  0.5084408416665861   T   T   T
  0.3333333333333357  0.8333333333333357  0.4083001692812189   F   F   F
  0.1648013605885796  0.9178595834421009  0.5089700740912568   T   T   T
  0.4174331369782722  0.9195127810029441  0.5104528833705353   T   T   T
  0.5833333333333357  0.8333333333333357  0.4083001692812189   F   F   F
  0.5007535575676301  0.4979649370782018  0.6103483875143316   T   T   T
  0.1679814289723722  0.1663880973368642  0.5086247900991649   T   T   T
  0.5833333333333357  0.0833333333333357  0.4083001692812189   F   F   F
  0.6655221496085310  0.9205128076409470  0.5076033330777733   T   T   T
  0.2512005030507469  0.4996129163998080  0.6056246850194744   T   T   T
  0.3333333333333357  0.5833333333333357  0.4083001692812189   F   F   F
  0.9160995181284393  0.6674310797875304  0.5091121263159863   T   T   T
  0.3333333333333357  0.0833333333333357  0.4083001692812189   F   F   F
 -0.0013739389299679  0.7508799410782757  0.6056870913896204   T   T   T
  0.0833333333333357  0.8333333333333357  0.4083001692812189   F   F   F
  0.4187858594309782  0.1668745255723029  0.5052747178353370   T   T   T
  0.3333333333333357  0.3333333333333357  0.4083001692812189   F   F   F
  0.5021610503683914 -0.0004076139135389  0.6051985379840402   T   T   T
  0.7494139382168387  0.5007369375397435  0.6060138701820696   T   T   T
  0.4194436098794905  0.4146790023584834  0.5052316565725226   T   T   T
  0.0833333333333357  0.0833333333333357  0.4083001692812189   F   F   F
  0.6648367995143445  0.4145279989835074  0.5073310494266767   T   T   T
  0.5016069567294511  0.7497990698637200  0.6072552890777597   T   T   T
  0.8333333333333357  0.0833333333333357  0.4083001692812189   F   F   F
  0.6636252485591279  0.1687154181307353  0.5048681649492383   T   T   T
  0.7487402397347931 -0.0008015063630260  0.6038831236642123   T   T   T
  0.8333333333333357  0.5833333333333357  0.4083001692812189   F   F   F
  0.8333333333333357  0.3333333333333357  0.4083001692812189   F   F   F
  0.5009910528760469  0.2476813867177595  0.6005157840946028   T   T   T
  0.5833333333333357  0.3333333333333357  0.4083001692812189   F   F   F
  0.7479680659347511  0.7525581986183805  0.6050997467837266   T   T   T
 
  0.00000000E+00  0.00000000E+00  0.00000000E+00
  0.00000000E+00  0.00000000E+00  0.00000000E+00
  0.00000000E+00  0.00000000E+00  0.00000000E+00
  0.00000000E+00  0.00000000E+00  0.00000000E+00
  0.00000000E+00  0.00000000E+00  0.00000000E+00
  0.00000000E+00  0.00000000E+00  0.00000000E+00
  0.00000000E+00  0.00000000E+00  0.00000000E+00
  0.00000000E+00  0.00000000E+00  0.00000000E+00
  0.00000000E+00  0.00000000E+00  0.00000000E+00
  0.00000000E+00  0.00000000E+00  0.00000000E+00
  0.00000000E+00  0.00000000E+00  0.00000000E+00
  0.00000000E+00  0.00000000E+00  0.00000000E+00
  0.00000000E+00  0.00000000E+00  0.00000000E+00
  0.00000000E+00  0.00000000E+00  0.00000000E+00
  0.00000000E+00  0.00000000E+00  0.00000000E+00
  0.00000000E+00  0.00000000E+00  0.00000000E+00
  0.00000000E+00  0.00000000E+00  0.00000000E+00
  0.00000000E+00  0.00000000E+00  0.00000000E+00
  0.00000000E+00  0.00000000E+00  0.00000000E+00
  0.00000000E+00  0.00000000E+00  0.00000000E+00
  0.00000000E+00  0.00000000E+00  0.00000000E+00
  0.00000000E+00  0.00000000E+00  0.00000000E+00
  0.00000000E+00  0.00000000E+00  0.00000000E+00
  0.00000000E+00  0.00000000E+00  0.00000000E+00
  0.00000000E+00  0.00000000E+00  0.00000000E+00
  0.00000000E+00  0.00000000E+00  0.00000000E+00
  0.00000000E+00  0.00000000E+00  0.00000000E+00
  0.00000000E+00  0.00000000E+00  0.00000000E+00
  0.00000000E+00  0.00000000E+00  0.00000000E+00
  0.00000000E+00  0.00000000E+00  0.00000000E+00
  0.00000000E+00  0.00000000E+00  0.00000000E+00
  0.00000000E+00  0.00000000E+00  0.00000000E+00
  0.00000000E+00  0.00000000E+00  0.00000000E+00
  0.00000000E+00  0.00000000E+00  0.00000000E+00
  0.00000000E+00  0.00000000E+00  0.00000000E+00
  0.00000000E+00  0.00000000E+00  0.00000000E+00
  0.00000000E+00  0.00000000E+00  0.00000000E+00
  0.00000000E+00  0.00000000E+00  0.00000000E+00
  0.00000000E+00  0.00000000E+00  0.00000000E+00
  0.00000000E+00  0.00000000E+00  0.00000000E+00
  0.00000000E+00  0.00000000E+00  0.00000000E+00
  0.00000000E+00  0.00000000E+00  0.00000000E+00
  0.00000000E+00  0.00000000E+00  0.00000000E+00
  0.00000000E+00  0.00000000E+00  0.00000000E+00
  0.00000000E+00  0.00000000E+00  0.00000000E+00
  0.00000000E+00  0.00000000E+00  0.00000000E+00
  0.00000000E+00  0.00000000E+00  0.00000000E+00
  0.00000000E+00  0.00000000E+00  0.00000000E+00
