Au Pd                                   
   1.00000000000000     
    11.0025815152626798    0.0000000000000000    0.0000000000000000
     5.5012907576313399    9.5285150994265617    0.0000000000000000
     0.0000000000000000    0.0000000000000000   24.4917850942952882
   Au   Pd
    24    24
Direct
  0.7507934276062700  0.7487484318674005  0.6045384336165116
  0.4992997315269507 -0.0007300391258934  0.6074612880950183
  0.4176859670094965  0.1677879670690607  0.5003984469800864
  0.8307003820433921  0.0855813206420773  0.3976960124291273
  0.6684850267808328  0.9145791735423311  0.5014667476555004
  0.1671320695496744  0.9159317569387050  0.4995876008145902
  0.7521118528116292 -0.0004357767169616  0.6022007351335787
  0.1655129885669457  0.6651709908788341  0.4976878559159896
  0.3352946731280673  0.5842765236854711  0.3927305848253615
  0.2501987268160639  0.2514408161727071  0.6040591660779976
  0.5856400585584665  0.5856539419824531  0.3951216256858145
  0.2487422772993570 -0.0029729310421183  0.6062828303681014
  0.1682341336720532  0.1663790301281737  0.5009191536911551
  0.3363748493952186  0.3305987558284706  0.3953135045772579
  0.7490089579105028  0.2497242277647933  0.6044932837977020
  0.9155073119949836  0.1655015912738782  0.5001531804927082
  0.0821953869941214  0.3324888448162820  0.3959719310621009
  0.9161713992289323  0.4194864367687524  0.5003482103904967
  0.6650671744223419  0.4161648179636271  0.4994942174311887
  0.0796573968254885  0.5854381868711764  0.3962116610452767
  0.7474818006843068  0.4998694957660699  0.6048703684466991
  0.0021899715335322  0.5002473058703018  0.6018621063691951
  0.0819402216700495  0.8364836360250895  0.3936845985037945
  0.4182374891852708  0.6668712136866279  0.4984006993982218
  0.6669988397845718  0.1659475583956791  0.5002691644134140
  0.8329805678308539  0.3343369271287742  0.4021501705649095
  0.8304999235018241  0.8343497476180344  0.4033288826978641
  0.8317609291143386  0.5857993095871811  0.4040030630747642
  0.4981856677128779  0.7482178260693024  0.5978062274367784
  0.4184501547749125  0.9160248792404548  0.5029928890892279
  0.5826403418102947  0.8353961786075257  0.4055128918534548
  0.6668548187438411  0.6670908119975010  0.5015969319698383
  0.0843072686628566  0.0838612564692301  0.4018855186549668
  0.4987547886127535  0.2522392107878590  0.5960128542609797
  0.4164179200289007  0.4157761300915359  0.4968731468189523
  0.5839783189988644  0.3332907448562681  0.4017237880569300
  0.5837722052658442  0.0821112817419612  0.4036331964244519
  0.3340787287991829  0.8364834163295096  0.4021550890458165
  0.2517635596621080  0.4994828123743594  0.5939718714634902
  0.1669176992950325  0.4170878347664217  0.4980428207091416
  0.3342948496038877  0.0811600248079463  0.4041598241388855
  0.0029079980836000  0.7495348082402350  0.5953536626683259
  0.9155025010801701  0.9161858967614734  0.4987809620486515
  0.9169339614488763  0.6664670763701477  0.5005967918999784
  0.0002587671725229  0.2487240729360641  0.5986590711666935
  0.0006798233998692 -0.0017509190960300  0.5974512609171592
  0.4973515456918549  0.5001467668123132  0.5958768543790345
  0.2500455457062142  0.7477506284489430  0.5962088234428188
 
  0.00000000E+00  0.00000000E+00  0.00000000E+00
  0.00000000E+00  0.00000000E+00  0.00000000E+00
  0.00000000E+00  0.00000000E+00  0.00000000E+00
  0.00000000E+00  0.00000000E+00  0.00000000E+00
  0.00000000E+00  0.00000000E+00  0.00000000E+00
  0.00000000E+00  0.00000000E+00  0.00000000E+00
  0.00000000E+00  0.00000000E+00  0.00000000E+00
  0.00000000E+00  0.00000000E+00  0.00000000E+00
  0.00000000E+00  0.00000000E+00  0.00000000E+00
  0.00000000E+00  0.00000000E+00  0.00000000E+00
  0.00000000E+00  0.00000000E+00  0.00000000E+00
  0.00000000E+00  0.00000000E+00  0.00000000E+00
  0.00000000E+00  0.00000000E+00  0.00000000E+00
  0.00000000E+00  0.00000000E+00  0.00000000E+00
  0.00000000E+00  0.00000000E+00  0.00000000E+00
  0.00000000E+00  0.00000000E+00  0.00000000E+00
  0.00000000E+00  0.00000000E+00  0.00000000E+00
  0.00000000E+00  0.00000000E+00  0.00000000E+00
  0.00000000E+00  0.00000000E+00  0.00000000E+00
  0.00000000E+00  0.00000000E+00  0.00000000E+00
  0.00000000E+00  0.00000000E+00  0.00000000E+00
  0.00000000E+00  0.00000000E+00  0.00000000E+00
  0.00000000E+00  0.00000000E+00  0.00000000E+00
  0.00000000E+00  0.00000000E+00  0.00000000E+00
  0.00000000E+00  0.00000000E+00  0.00000000E+00
  0.00000000E+00  0.00000000E+00  0.00000000E+00
  0.00000000E+00  0.00000000E+00  0.00000000E+00
  0.00000000E+00  0.00000000E+00  0.00000000E+00
  0.00000000E+00  0.00000000E+00  0.00000000E+00
  0.00000000E+00  0.00000000E+00  0.00000000E+00
  0.00000000E+00  0.00000000E+00  0.00000000E+00
  0.00000000E+00  0.00000000E+00  0.00000000E+00
  0.00000000E+00  0.00000000E+00  0.00000000E+00
  0.00000000E+00  0.00000000E+00  0.00000000E+00
  0.00000000E+00  0.00000000E+00  0.00000000E+00
  0.00000000E+00  0.00000000E+00  0.00000000E+00
  0.00000000E+00  0.00000000E+00  0.00000000E+00
  0.00000000E+00  0.00000000E+00  0.00000000E+00
  0.00000000E+00  0.00000000E+00  0.00000000E+00
  0.00000000E+00  0.00000000E+00  0.00000000E+00
  0.00000000E+00  0.00000000E+00  0.00000000E+00
  0.00000000E+00  0.00000000E+00  0.00000000E+00
  0.00000000E+00  0.00000000E+00  0.00000000E+00
  0.00000000E+00  0.00000000E+00  0.00000000E+00
  0.00000000E+00  0.00000000E+00  0.00000000E+00
  0.00000000E+00  0.00000000E+00  0.00000000E+00
  0.00000000E+00  0.00000000E+00  0.00000000E+00
  0.00000000E+00  0.00000000E+00  0.00000000E+00
