Au Pd                                   
   1.00000000000000     
    11.0025815152626798    0.0000000000000000    0.0000000000000000
     5.5012907576313399    9.5285150994265617    0.0000000000000000
     0.0000000000000000    0.0000000000000000   24.4917850942952882
   Au   Pd
    24    24
Direct
  0.0829441443809363  0.0823727122922176  0.4005259835965561
  0.8342390740836496  0.8366788922171637  0.3975279520657868
  0.7502523317807795  0.5028033797774816  0.6040390826222226
  0.6646296284527782  0.6662175332287984  0.5006815961622901
  0.8359210386174528  0.5795417379361195  0.3957053693586831
  0.7483296897313222  0.2483184841166832  0.6063635978555931
  0.6681353239663630  0.1640508092847033  0.5006023153605161
  0.5828271082195940  0.8346082445693817  0.3968402667854423
  0.4982374877353809  0.5008462197682436  0.6026273993308273
  0.5840507145502174  0.5824029515976236  0.3995627780515821
  0.4161856615832766  0.4186505621800611  0.4995859088891878
  0.5876199521823108  0.3301795715408010  0.3971901176756293
  0.4164497801673769  0.1639426682006050  0.4984682516858210
  0.3326538500526198  0.5857997959798684  0.3984944503543450
  0.1653818831182947  0.4160365689681643  0.4985829511388568
  0.2490165366479141  0.7511132648896393  0.6021665669451465
  0.2519929289188986  0.0014054643287544  0.6016891703135001
 -0.0028097119548555  0.7519042333601226  0.6025564324206849
  0.0842058616706676  0.5838090360304852  0.3946554197393763
  0.3329201801819784  0.0827953407114363  0.3972773290303798
  0.3341759187913504  0.3317686298800698  0.3903975470334342
  0.9165452036398517  0.6671869197455081  0.4996778009472734
  0.9179545748717205  0.1656454660337537  0.5025638226495550
  0.0014163330383696  0.2512952158513425  0.6043540337715734
  0.6666191227491663  0.4167026001335671  0.5024691047073581
  0.8351926841004002  0.3323680680558345  0.4059944988361558
  0.9165150418387781  0.4153445867779811  0.5017677286232463
  0.0837224693918598  0.3325968326922847  0.4030024053292456
 -0.0016278681763055  0.0009607504809576  0.5989909651040294
  0.8344204428810507  0.0827616846174186  0.4044418875969732
  0.5001615283094791  0.7523224828543605  0.5973951154071543
  0.4146669078642146  0.9167142258277726  0.5005111595206045
  0.7482547388803857  0.0002015230315761  0.5969615516186363
  0.4150731183143531  0.6675394329437829  0.5013891264890992
  0.0842752456003664  0.8334641167486193  0.4057757649428504
  0.4979483947466405  0.2492347828963261  0.5970356164339220
  0.9184230426117227  0.9142870980850163  0.5011165282270561
  0.5019046504867515  0.0002806361331807  0.5957505978842236
  0.5844428198527953  0.0834323754168007  0.4008859493258010
  0.6668532035858514  0.9150398171364491  0.4982487633125905
  0.1679903903899780  0.9148403403277805  0.5023457259996238
  0.3326214964983157  0.8336079439952891  0.4058312747996232
  0.2480421593076707  0.5000302419839258  0.5964527710980834
  0.1662278529182124  0.6686012469925973  0.5007314009082418
  0.1663114343981879  0.1645134087262028  0.5007549313313404
  0.2506283769723021  0.2517510408114454  0.5960502684958850
  0.0003507426131435  0.5008905584848089  0.5974839867454181
  0.7477065094364320  0.7531405023569945  0.5964767334785751
 
  0.00000000E+00  0.00000000E+00  0.00000000E+00
  0.00000000E+00  0.00000000E+00  0.00000000E+00
  0.00000000E+00  0.00000000E+00  0.00000000E+00
  0.00000000E+00  0.00000000E+00  0.00000000E+00
  0.00000000E+00  0.00000000E+00  0.00000000E+00
  0.00000000E+00  0.00000000E+00  0.00000000E+00
  0.00000000E+00  0.00000000E+00  0.00000000E+00
  0.00000000E+00  0.00000000E+00  0.00000000E+00
  0.00000000E+00  0.00000000E+00  0.00000000E+00
  0.00000000E+00  0.00000000E+00  0.00000000E+00
  0.00000000E+00  0.00000000E+00  0.00000000E+00
  0.00000000E+00  0.00000000E+00  0.00000000E+00
  0.00000000E+00  0.00000000E+00  0.00000000E+00
  0.00000000E+00  0.00000000E+00  0.00000000E+00
  0.00000000E+00  0.00000000E+00  0.00000000E+00
  0.00000000E+00  0.00000000E+00  0.00000000E+00
  0.00000000E+00  0.00000000E+00  0.00000000E+00
  0.00000000E+00  0.00000000E+00  0.00000000E+00
  0.00000000E+00  0.00000000E+00  0.00000000E+00
  0.00000000E+00  0.00000000E+00  0.00000000E+00
  0.00000000E+00  0.00000000E+00  0.00000000E+00
  0.00000000E+00  0.00000000E+00  0.00000000E+00
  0.00000000E+00  0.00000000E+00  0.00000000E+00
  0.00000000E+00  0.00000000E+00  0.00000000E+00
  0.00000000E+00  0.00000000E+00  0.00000000E+00
  0.00000000E+00  0.00000000E+00  0.00000000E+00
  0.00000000E+00  0.00000000E+00  0.00000000E+00
  0.00000000E+00  0.00000000E+00  0.00000000E+00
  0.00000000E+00  0.00000000E+00  0.00000000E+00
  0.00000000E+00  0.00000000E+00  0.00000000E+00
  0.00000000E+00  0.00000000E+00  0.00000000E+00
  0.00000000E+00  0.00000000E+00  0.00000000E+00
  0.00000000E+00  0.00000000E+00  0.00000000E+00
  0.00000000E+00  0.00000000E+00  0.00000000E+00
  0.00000000E+00  0.00000000E+00  0.00000000E+00
  0.00000000E+00  0.00000000E+00  0.00000000E+00
  0.00000000E+00  0.00000000E+00  0.00000000E+00
  0.00000000E+00  0.00000000E+00  0.00000000E+00
  0.00000000E+00  0.00000000E+00  0.00000000E+00
  0.00000000E+00  0.00000000E+00  0.00000000E+00
  0.00000000E+00  0.00000000E+00  0.00000000E+00
  0.00000000E+00  0.00000000E+00  0.00000000E+00
  0.00000000E+00  0.00000000E+00  0.00000000E+00
  0.00000000E+00  0.00000000E+00  0.00000000E+00
  0.00000000E+00  0.00000000E+00  0.00000000E+00
  0.00000000E+00  0.00000000E+00  0.00000000E+00
  0.00000000E+00  0.00000000E+00  0.00000000E+00
  0.00000000E+00  0.00000000E+00  0.00000000E+00
