Au  O Pd                                
   1.00000000000000     
    11.0025815152626798    0.0000000000000000    0.0000000000000000
     5.5012907576313399    9.5285150994265617    0.0000000000000000
     0.0000000000000000    0.0000000000000000   26.1917850942952910
   Au   O    Pd
    24     8    24
Selective dynamics
Direct
  0.7583482042010794  0.4927069393684229  0.5872289301497212   T   T   T
  0.7637531968301029  0.9947634949502883  0.5609342352947418   T   T   T
  0.8333333333333357  0.8333333333333357  0.3817991009012260   F   F   F
  0.6641986931298330  0.4155378116927053  0.4770651806174838   T   T   T
  0.9151966012375056  0.6640023019327213  0.4752535602487533   T   T   T
  0.0833333333333357  0.5833333333333357  0.3817991009012260   F   F   F
  0.8333333333333357  0.0833333333333357  0.3817991009012260   F   F   F
  0.8333333333333357  0.3333333333333357  0.3817991009012260   F   F   F
  0.9171099232713015  0.1622834233919114  0.4782789876454911   T   T   T
  0.0833333333333357  0.3333333333333357  0.3817991009012260   F   F   F
  0.0056670258702649  0.2450869124693503  0.5664989940288729   T   T   T
  0.6658453473231655  0.6629021200606745  0.4751067155729944   T   T   T
  0.2665959432462949  0.9834436275296627  0.6131913790024317   T   T   T
  0.3333333333333357  0.3333333333333357  0.3817991009012260   F   F   F
  0.1664811438095070  0.4110961221949826  0.4780819648369893   T   T   T
  0.4136252491259169  0.9165510854879630  0.4759013152967060   T   T   T
  0.5833333333333357  0.8333333333333357  0.3817991009012260   F   F   F
  0.1702248661652615  0.6664364648801465  0.4729483665418204   T   T   T
  0.2488162632071527  0.5050468811394718  0.5667342204864614   T   T   T
  0.1667523089737428  0.9157985289862857  0.4773235085478674   T   T   T
  0.7408169530888988  0.7588058538961195  0.5688544222906459   T   T   T
  0.5833333333333357  0.0833333333333357  0.3817991009012260   F   F   F
  0.4889173648104710 -0.0019504907240386  0.5629508784491203   T   T   T
  0.3333333333333357  0.0833333333333357  0.3817991009012260   F   F   F
  0.5449361940376385  0.6166672149462238  0.6172136790254545   T   T   T
  0.8571681010413078  0.5962955900070686  0.6228486659968318   T   T   T
  0.0794067272859292  0.7835388289664804  0.6221618811757099   T   T   T
  0.5774720763764970  0.0868857075933141  0.6106306292744426   T   T   T
  0.5763994908292670  0.3382763893618094  0.6085514122890181   T   T   T
  0.8261715293899190  0.0886086369441103  0.6182910695203501   T   T   T
  0.0587908058567518  0.1332097884028058  0.6376668086599200   T   T   T
  0.3031272548832808  0.1495975240632277  0.6286337600658698   T   T   T
  0.4172956042169267  0.1676460729262771  0.4750468521804496   T   T   T
  0.2369348052761172  0.7664084560104190  0.5750058422983874   T   T   T
  0.3333333333333357  0.8333333333333357  0.3817991009012260   F   F   F
  0.7562539009236897  0.2558639483143498  0.5690683180505011   T   T   T
  0.3333333333333357  0.5833333333333357  0.3817991009012260   F   F   F
  0.2459806293570671  0.2536041470763542  0.5664127801022572   T   T   T
 -0.0002509441221625  0.7445876529143253  0.5606002900154261   T   T   T
  0.4172813731721103  0.4161318534009684  0.4755430651170982   T   T   T
  0.9180621894560359  0.9167168565586711  0.4733034328074840   T   T   T
  0.0833333333333357  0.8333333333333357  0.3817991009012260   F   F   F
  0.0058410928621312  0.4971260483888963  0.5701237609736086   T   T   T
  0.6690416525306230  0.9168335490208493  0.4767751266702673   T   T   T
  0.9151763998891368  0.4125637428119364  0.4796263255138765   T   T   T
  0.0301732828504032  0.9759049286159717  0.6290634575858037   T   T   T
  0.5833333333333357  0.3333333333333357  0.3817991009012260   F   F   F
  0.0833333333333357  0.0833333333333357  0.3817991009012260   F   F   F
  0.4907955342106526  0.2548562905814729  0.5648536777053136   T   T   T
  0.4156711122040407  0.6655150666527834  0.4741299566454291   T   T   T
  0.4804396002256104  0.7651323420332546  0.5656962276041042   T   T   T
  0.4879815707515136  0.5144935730457877  0.5684683916533919   T   T   T
  0.6640611180912585  0.1686152330630803  0.4722310026146852   T   T   T
  0.5833333333333357  0.5833333333333357  0.3817991009012260   F   F   F
  0.1666189025568389  0.1638908826518253  0.4753028353743273   T   T   T
  0.8333333333333357  0.5833333333333357  0.3817991009012260   F   F   F
 
  0.00000000E+00  0.00000000E+00  0.00000000E+00
  0.00000000E+00  0.00000000E+00  0.00000000E+00
  0.00000000E+00  0.00000000E+00  0.00000000E+00
  0.00000000E+00  0.00000000E+00  0.00000000E+00
  0.00000000E+00  0.00000000E+00  0.00000000E+00
  0.00000000E+00  0.00000000E+00  0.00000000E+00
  0.00000000E+00  0.00000000E+00  0.00000000E+00
  0.00000000E+00  0.00000000E+00  0.00000000E+00
  0.00000000E+00  0.00000000E+00  0.00000000E+00
  0.00000000E+00  0.00000000E+00  0.00000000E+00
  0.00000000E+00  0.00000000E+00  0.00000000E+00
  0.00000000E+00  0.00000000E+00  0.00000000E+00
  0.00000000E+00  0.00000000E+00  0.00000000E+00
  0.00000000E+00  0.00000000E+00  0.00000000E+00
  0.00000000E+00  0.00000000E+00  0.00000000E+00
  0.00000000E+00  0.00000000E+00  0.00000000E+00
  0.00000000E+00  0.00000000E+00  0.00000000E+00
  0.00000000E+00  0.00000000E+00  0.00000000E+00
  0.00000000E+00  0.00000000E+00  0.00000000E+00
  0.00000000E+00  0.00000000E+00  0.00000000E+00
  0.00000000E+00  0.00000000E+00  0.00000000E+00
  0.00000000E+00  0.00000000E+00  0.00000000E+00
  0.00000000E+00  0.00000000E+00  0.00000000E+00
  0.00000000E+00  0.00000000E+00  0.00000000E+00
  0.00000000E+00  0.00000000E+00  0.00000000E+00
  0.00000000E+00  0.00000000E+00  0.00000000E+00
  0.00000000E+00  0.00000000E+00  0.00000000E+00
  0.00000000E+00  0.00000000E+00  0.00000000E+00
  0.00000000E+00  0.00000000E+00  0.00000000E+00
  0.00000000E+00  0.00000000E+00  0.00000000E+00
  0.00000000E+00  0.00000000E+00  0.00000000E+00
  0.00000000E+00  0.00000000E+00  0.00000000E+00
  0.00000000E+00  0.00000000E+00  0.00000000E+00
  0.00000000E+00  0.00000000E+00  0.00000000E+00
  0.00000000E+00  0.00000000E+00  0.00000000E+00
  0.00000000E+00  0.00000000E+00  0.00000000E+00
  0.00000000E+00  0.00000000E+00  0.00000000E+00
  0.00000000E+00  0.00000000E+00  0.00000000E+00
  0.00000000E+00  0.00000000E+00  0.00000000E+00
  0.00000000E+00  0.00000000E+00  0.00000000E+00
  0.00000000E+00  0.00000000E+00  0.00000000E+00
  0.00000000E+00  0.00000000E+00  0.00000000E+00
  0.00000000E+00  0.00000000E+00  0.00000000E+00
  0.00000000E+00  0.00000000E+00  0.00000000E+00
  0.00000000E+00  0.00000000E+00  0.00000000E+00
  0.00000000E+00  0.00000000E+00  0.00000000E+00
  0.00000000E+00  0.00000000E+00  0.00000000E+00
  0.00000000E+00  0.00000000E+00  0.00000000E+00
  0.00000000E+00  0.00000000E+00  0.00000000E+00
  0.00000000E+00  0.00000000E+00  0.00000000E+00
  0.00000000E+00  0.00000000E+00  0.00000000E+00
  0.00000000E+00  0.00000000E+00  0.00000000E+00
  0.00000000E+00  0.00000000E+00  0.00000000E+00
  0.00000000E+00  0.00000000E+00  0.00000000E+00
  0.00000000E+00  0.00000000E+00  0.00000000E+00
  0.00000000E+00  0.00000000E+00  0.00000000E+00
