Au  O Pd                                
   1.00000000000000     
    11.0025815152626798    0.0000000000000000    0.0000000000000000
     5.5012907576313399    9.5285150994265617    0.0000000000000000
     0.0000000000000000    0.0000000000000000   26.1917850942952910
   Au   O    Pd
    24     8    24
Selective dynamics
Direct
  0.7568420644689662  0.4874210867241220  0.5612465204366670   T   T   T
  0.7553319540153670 -0.0109882053055321  0.5593761927503969   T   T   T
  0.8333333333333357  0.8333333333333357  0.3817991009012260   F   F   F
  0.6639630824959124  0.4156755372673492  0.4707454598121489   T   T   T
  0.9168805187728707  0.6675475450779708  0.4713443698462695   T   T   T
  0.0833333333333357  0.5833333333333357  0.3817991009012260   F   F   F
  0.8333333333333357  0.0833333333333357  0.3817991009012260   F   F   F
  0.8333333333333357  0.3333333333333357  0.3817991009012260   F   F   F
  0.9163583749277715  0.1649045658474854  0.4718483146777060   T   T   T
  0.0833333333333357  0.3333333333333357  0.3817991009012260   F   F   F
 -0.0031675280927056  0.2594454554316131  0.5595681404945250   T   T   T
  0.6656920078234378  0.6647014642557000  0.4684275809021073   T   T   T
  0.2551452596382552 -0.0125035008495034  0.5621527378607745   T   T   T
  0.3333333333333357  0.3333333333333357  0.3817991009012260   F   F   F
  0.1683923187073708  0.4119915325671132  0.4732184445027853   T   T   T
  0.4154971023676770  0.9166715917871460  0.4722613711939816   T   T   T
  0.5833333333333357  0.8333333333333357  0.3817991009012260   F   F   F
  0.1694905466854903  0.6670514096943029  0.4688738533091825   T   T   T
  0.2500000741663940  0.4997759505023673  0.5593305638590589   T   T   T
  0.1659729118395266  0.9178072419027974  0.4693792125396709   T   T   T
  0.7471512995657958  0.7586512520811992  0.5609115507833979   T   T   T
  0.5833333333333357  0.0833333333333357  0.3817991009012260   F   F   F
  0.5045963260632854 -0.0096934809794508  0.5604168054530907   T   T   T
  0.3333333333333357  0.0833333333333357  0.3817991009012260   F   F   F
  0.5690265893494039  0.5926783522745728  0.6078236271364231   T   T   T
  0.8449838727468502  0.5825941333479994  0.6102675630002665   T   T   T
  0.0913054649225010  0.8202185472850995  0.6065417942330491   T   T   T
  0.5790269932990205  0.0894476192379306  0.6100297999322788   T   T   T
  0.5786323336820267  0.3372273181678952  0.6054452901130112   T   T   T
  0.8336108273018764  0.0877122657032458  0.6086824212549350   T   T   T
  0.0796252109511082  0.0876070949597139  0.6104539883532691   T   T   T
  0.3293329887076010  0.0937261106891424  0.6101089621989981   T   T   T
  0.4196156459708680  0.1687287445730779  0.4711678751530639   T   T   T
  0.2540147499791946  0.7467616584897966  0.5599517834758257   T   T   T
  0.3333333333333357  0.8333333333333357  0.3817991009012260   F   F   F
  0.7524596327687805  0.2519201349553492  0.5640880686549414   T   T   T
  0.3333333333333357  0.5833333333333357  0.3817991009012260   F   F   F
  0.2483507599561380  0.2542664764048054  0.5604409954719695   T   T   T
  0.0028031744651454  0.7454844868388214  0.5599173284439917   T   T   T
  0.4198225668291306  0.4150282846359181  0.4711654993875015   T   T   T
  0.9145847260204366  0.9191308018074311  0.4709187236685448   T   T   T
  0.0833333333333357  0.8333333333333357  0.3817991009012260   F   F   F
  0.0052175462994851  0.4986251286255811  0.5607647957866112   T   T   T
  0.6669204747999508  0.9195276667449412  0.4729398039723557   T   T   T
  0.9156824478233244  0.4158211097786855  0.4711764768407901   T   T   T
  0.0000476591512609 -0.0000438446032298  0.5663762040096553   T   T   T
  0.5833333333333357  0.3333333333333357  0.3817991009012260   F   F   F
  0.0833333333333357  0.0833333333333357  0.3817991009012260   F   F   F
  0.4928340067872410  0.2545658924850291  0.5630674330282623   T   T   T
  0.4164916044275945  0.6635837670458299  0.4702299633611112   T   T   T
  0.4965269715403921  0.7504975111264751  0.5604411598142695   T   T   T
  0.4936878569866160  0.5029280753412118  0.5634962727720304   T   T   T
  0.6644282771948863  0.1681768619888481  0.4691184104568827   T   T   T
  0.5833333333333357  0.5833333333333357  0.3817991009012260   F   F   F
  0.1673694207410421  0.1660542147972835  0.4689611603912089   T   T   T
  0.8333333333333357  0.5833333333333357  0.3817991009012260   F   F   F
 
  0.00000000E+00  0.00000000E+00  0.00000000E+00
  0.00000000E+00  0.00000000E+00  0.00000000E+00
  0.00000000E+00  0.00000000E+00  0.00000000E+00
  0.00000000E+00  0.00000000E+00  0.00000000E+00
  0.00000000E+00  0.00000000E+00  0.00000000E+00
  0.00000000E+00  0.00000000E+00  0.00000000E+00
  0.00000000E+00  0.00000000E+00  0.00000000E+00
  0.00000000E+00  0.00000000E+00  0.00000000E+00
  0.00000000E+00  0.00000000E+00  0.00000000E+00
  0.00000000E+00  0.00000000E+00  0.00000000E+00
  0.00000000E+00  0.00000000E+00  0.00000000E+00
  0.00000000E+00  0.00000000E+00  0.00000000E+00
  0.00000000E+00  0.00000000E+00  0.00000000E+00
  0.00000000E+00  0.00000000E+00  0.00000000E+00
  0.00000000E+00  0.00000000E+00  0.00000000E+00
  0.00000000E+00  0.00000000E+00  0.00000000E+00
  0.00000000E+00  0.00000000E+00  0.00000000E+00
  0.00000000E+00  0.00000000E+00  0.00000000E+00
  0.00000000E+00  0.00000000E+00  0.00000000E+00
  0.00000000E+00  0.00000000E+00  0.00000000E+00
  0.00000000E+00  0.00000000E+00  0.00000000E+00
  0.00000000E+00  0.00000000E+00  0.00000000E+00
  0.00000000E+00  0.00000000E+00  0.00000000E+00
  0.00000000E+00  0.00000000E+00  0.00000000E+00
  0.00000000E+00  0.00000000E+00  0.00000000E+00
  0.00000000E+00  0.00000000E+00  0.00000000E+00
  0.00000000E+00  0.00000000E+00  0.00000000E+00
  0.00000000E+00  0.00000000E+00  0.00000000E+00
  0.00000000E+00  0.00000000E+00  0.00000000E+00
  0.00000000E+00  0.00000000E+00  0.00000000E+00
  0.00000000E+00  0.00000000E+00  0.00000000E+00
  0.00000000E+00  0.00000000E+00  0.00000000E+00
  0.00000000E+00  0.00000000E+00  0.00000000E+00
  0.00000000E+00  0.00000000E+00  0.00000000E+00
  0.00000000E+00  0.00000000E+00  0.00000000E+00
  0.00000000E+00  0.00000000E+00  0.00000000E+00
  0.00000000E+00  0.00000000E+00  0.00000000E+00
  0.00000000E+00  0.00000000E+00  0.00000000E+00
  0.00000000E+00  0.00000000E+00  0.00000000E+00
  0.00000000E+00  0.00000000E+00  0.00000000E+00
  0.00000000E+00  0.00000000E+00  0.00000000E+00
  0.00000000E+00  0.00000000E+00  0.00000000E+00
  0.00000000E+00  0.00000000E+00  0.00000000E+00
  0.00000000E+00  0.00000000E+00  0.00000000E+00
  0.00000000E+00  0.00000000E+00  0.00000000E+00
  0.00000000E+00  0.00000000E+00  0.00000000E+00
  0.00000000E+00  0.00000000E+00  0.00000000E+00
  0.00000000E+00  0.00000000E+00  0.00000000E+00
  0.00000000E+00  0.00000000E+00  0.00000000E+00
  0.00000000E+00  0.00000000E+00  0.00000000E+00
  0.00000000E+00  0.00000000E+00  0.00000000E+00
  0.00000000E+00  0.00000000E+00  0.00000000E+00
  0.00000000E+00  0.00000000E+00  0.00000000E+00
  0.00000000E+00  0.00000000E+00  0.00000000E+00
  0.00000000E+00  0.00000000E+00  0.00000000E+00
  0.00000000E+00  0.00000000E+00  0.00000000E+00
