Au  O Pd                                
   1.00000000000000     
    11.0025815152626798    0.0000000000000000    0.0000000000000000
     5.5012907576313399    9.5285150994265617    0.0000000000000000
     0.0000000000000000    0.0000000000000000   26.1917850942952910
   Au   O    Pd
    24     8    24
Selective dynamics
Direct
  0.5833333333333357  0.8333333333333357  0.3817991009012260   F   F   F
  0.0833333333333357  0.8333333333333357  0.3817991009012260   F   F   F
  0.9144193824834229  0.1662965134766945  0.4723199192293688   T   T   T
  0.8333333333333357  0.8333333333333357  0.3817991009012260   F   F   F
  0.8333333333333357  0.5833333333333357  0.3817991009012260   F   F   F
  0.7349185828441444  0.2787398941097532  0.5944815741793710   T   T   T
  0.6636747517286419  0.4199910594864388  0.4757800607623570   T   T   T
 -0.0146131260617074  0.2595508099266161  0.5652100827612548   T   T   T
  0.0833333333333357  0.5833333333333357  0.3817991009012260   F   F   F
  0.7644204704242373 -0.0155489230853107  0.5609081822682090   T   T   T
 -0.0029010721175668  0.5039743970718681  0.5653695785766480   T   T   T
  0.4180058856471075  0.1699177938315617  0.4722009085952824   T   T   T
  0.4127242027704510  0.9192829359775220  0.4731152882986724   T   T   T
 -0.0067361176820565  0.7466365412670929  0.6161627177572224   T   T   T
  0.4916390631036206  0.5065319406434516  0.5640945513293709   T   T   T
  0.4032182222843083  0.6716232537296813  0.4705893302398392   T   T   T
  0.1640151811803904  0.1698654432869247  0.4745056685924223   T   T   T
  0.4990374523021963  0.2601030714173935  0.5615505479920356   T   T   T
  0.5833333333333357  0.3333333333333357  0.3817991009012260   F   F   F
  0.3333333333333357  0.3333333333333357  0.3817991009012260   F   F   F
  0.1640460933757642  0.4288999002015558  0.4757758645769021   T   T   T
  0.2443921581007250  0.2552667124783689  0.5680610725344761   T   T   T
  0.4970463223171915 -0.0091289889380592  0.5647805022237662   T   T   T
  0.1611166869578286  0.6739702845691786  0.5166424015393936   T   T   T
  0.0804448580841906  0.0822188496374897  0.6138278061222746   T   T   T
  0.3929243813336666  0.5521403217380464  0.6379106762238476   T   T   T
  0.3315464079734196  0.3077774386896358  0.6308573078508114   T   T   T
  0.0535919811485324  0.5427684999661448  0.6421504574427364   T   T   T
  0.7910962301832195  0.7765639022932082  0.6290683761624243   T   T   T
  0.3640256136980666  0.8290625384336957  0.6165115574241745   T   T   T
  0.5830147677253190  0.0793116170022792  0.6109774840346437   T   T   T
  0.8410464814446879  0.0690973531513001  0.6187703342311763   T   T   T
  0.2552628799092989 -0.0049426855799469  0.5718256196208407   T   T   T
  0.0833333333333357  0.0833333333333357  0.3817991009012260   F   F   F
  0.4087719411075387  0.4253944178077157  0.4753201283045131   T   T   T
  0.2413743216824669  0.5114023569518650  0.6377958991797952   T   T   T
  0.5833333333333357  0.0833333333333357  0.3817991009012260   F   F   F
  0.7481247193741053  0.7446024185221927  0.5621152755626305   T   T   T
  0.2417777077146742  0.7421669823583784  0.6118135036327425   T   T   T
  0.1614427121254050  0.9167817173087894  0.4810060689493086   T   T   T
  0.3333333333333357  0.5833333333333357  0.3817991009012260   F   F   F
  0.3333333333333357  0.8333333333333357  0.3817991009012260   F   F   F
  0.9230743698572712  0.9128071100018385  0.4752225418443815   T   T   T
  0.4974100718523449  0.7465105139377811  0.5596439276963090   T   T   T
  0.8333333333333357  0.0833333333333357  0.3817991009012260   F   F   F
  0.6683099999257399  0.1674750799801164  0.4724293023332429   T   T   T
  0.9184423508193155  0.6723573595383729  0.4758744768163629   T   T   T
  0.8333333333333357  0.3333333333333357  0.3817991009012260   F   F   F
  0.9140279436353628  0.4227645790414045  0.4749833747583913   T   T   T
  0.0833333333333357  0.3333333333333357  0.3817991009012260   F   F   F
  0.6649512298392115  0.6708512299955286  0.4754021031176098   T   T   T
  0.7422612424558613  0.5079794042279909  0.5634631013469474   T   T   T
  0.0131268387555777 -0.0292681260560370  0.5745219323211677   T   T   T
  0.6713277499442816  0.9178653666377020  0.4729266160269439   T   T   T
  0.5833333333333357  0.5833333333333357  0.3817991009012260   F   F   F
  0.3333333333333357  0.0833333333333357  0.3817991009012260   F   F   F
 
  0.00000000E+00  0.00000000E+00  0.00000000E+00
  0.00000000E+00  0.00000000E+00  0.00000000E+00
  0.00000000E+00  0.00000000E+00  0.00000000E+00
  0.00000000E+00  0.00000000E+00  0.00000000E+00
  0.00000000E+00  0.00000000E+00  0.00000000E+00
  0.00000000E+00  0.00000000E+00  0.00000000E+00
  0.00000000E+00  0.00000000E+00  0.00000000E+00
  0.00000000E+00  0.00000000E+00  0.00000000E+00
  0.00000000E+00  0.00000000E+00  0.00000000E+00
  0.00000000E+00  0.00000000E+00  0.00000000E+00
  0.00000000E+00  0.00000000E+00  0.00000000E+00
  0.00000000E+00  0.00000000E+00  0.00000000E+00
  0.00000000E+00  0.00000000E+00  0.00000000E+00
  0.00000000E+00  0.00000000E+00  0.00000000E+00
  0.00000000E+00  0.00000000E+00  0.00000000E+00
  0.00000000E+00  0.00000000E+00  0.00000000E+00
  0.00000000E+00  0.00000000E+00  0.00000000E+00
  0.00000000E+00  0.00000000E+00  0.00000000E+00
  0.00000000E+00  0.00000000E+00  0.00000000E+00
  0.00000000E+00  0.00000000E+00  0.00000000E+00
  0.00000000E+00  0.00000000E+00  0.00000000E+00
  0.00000000E+00  0.00000000E+00  0.00000000E+00
  0.00000000E+00  0.00000000E+00  0.00000000E+00
  0.00000000E+00  0.00000000E+00  0.00000000E+00
  0.00000000E+00  0.00000000E+00  0.00000000E+00
  0.00000000E+00  0.00000000E+00  0.00000000E+00
  0.00000000E+00  0.00000000E+00  0.00000000E+00
  0.00000000E+00  0.00000000E+00  0.00000000E+00
  0.00000000E+00  0.00000000E+00  0.00000000E+00
  0.00000000E+00  0.00000000E+00  0.00000000E+00
  0.00000000E+00  0.00000000E+00  0.00000000E+00
  0.00000000E+00  0.00000000E+00  0.00000000E+00
  0.00000000E+00  0.00000000E+00  0.00000000E+00
  0.00000000E+00  0.00000000E+00  0.00000000E+00
  0.00000000E+00  0.00000000E+00  0.00000000E+00
  0.00000000E+00  0.00000000E+00  0.00000000E+00
  0.00000000E+00  0.00000000E+00  0.00000000E+00
  0.00000000E+00  0.00000000E+00  0.00000000E+00
  0.00000000E+00  0.00000000E+00  0.00000000E+00
  0.00000000E+00  0.00000000E+00  0.00000000E+00
  0.00000000E+00  0.00000000E+00  0.00000000E+00
  0.00000000E+00  0.00000000E+00  0.00000000E+00
  0.00000000E+00  0.00000000E+00  0.00000000E+00
  0.00000000E+00  0.00000000E+00  0.00000000E+00
  0.00000000E+00  0.00000000E+00  0.00000000E+00
  0.00000000E+00  0.00000000E+00  0.00000000E+00
  0.00000000E+00  0.00000000E+00  0.00000000E+00
  0.00000000E+00  0.00000000E+00  0.00000000E+00
  0.00000000E+00  0.00000000E+00  0.00000000E+00
  0.00000000E+00  0.00000000E+00  0.00000000E+00
  0.00000000E+00  0.00000000E+00  0.00000000E+00
  0.00000000E+00  0.00000000E+00  0.00000000E+00
  0.00000000E+00  0.00000000E+00  0.00000000E+00
  0.00000000E+00  0.00000000E+00  0.00000000E+00
  0.00000000E+00  0.00000000E+00  0.00000000E+00
  0.00000000E+00  0.00000000E+00  0.00000000E+00
