Au Pd                                   
   1.00000000000000     
    11.0025815152626798    0.0000000000000000    0.0000000000000000
     5.5012907576313399    9.5285150994265617    0.0000000000000000
     0.0000000000000000    0.0000000000000000   24.4917850942952882
   Au   Pd
    24    24
Direct
  0.0827986905379034  0.0824111397706694  0.3989204958283815
  0.6681278471246186  0.1684250965951075  0.5005961195430971
  0.7516252766160967 -0.0019229713848552  0.6037976490281113
  0.1688565241244611  0.6665793439377844  0.4991972227936231
  0.3351438085891033  0.5824230029555868  0.3961838253122463
  0.2537349256017118  0.2510512389563090  0.6073482579746575
  0.8319250427979007  0.3321296834342121  0.4002176041457237
  0.5821227027467869  0.3311503522338148  0.3979323555442372
  0.2528078375531999 -0.0037037517926640  0.6026307046584584
  0.1663517033633172  0.1657697892780997  0.5023277096421079
  0.6659864569837791  0.9157110725536107  0.4995236556463842
  0.3330197697518885  0.0838447988026319  0.3968882711795683
  0.8321582698543517  0.5820234637862256  0.3961529946943370
  0.0828640832815776  0.8336986136931764  0.3969092285793412
  0.0014933687391288  0.5036188694141981  0.6069084074685882
  0.9168333874071980  0.6666863382220157  0.5000469264942639
  0.0850535175177086  0.5788134860684478  0.3960414963086247
  0.0007122600047515  0.2486384984744320  0.6075959756450409
  0.9150130619976045  0.4169649565737406  0.5025992235903890
  0.5811301931716889  0.8323330712835056  0.3961867839742370
  0.7465772917884961  0.5042483510019073  0.6027837260399538
  0.8319149001369728  0.8354958921882814  0.3942473202320022
  0.7489506377481672  0.2509753696588632  0.6032229381172701
  0.4147371197318067  0.1687441502204599  0.5011476578985098
  0.4154394990503325  0.9141999791537119  0.4993700518885920
  0.6649924763561863  0.4189276287652339  0.5006692937303072
  0.8325112046787532  0.0823652546899803  0.4032674062129971
  0.4977705697152059  0.5023511165122312  0.5947410413427970
  0.6645922287146976  0.6663011595467331  0.4991125860233494
  0.4999590552852243  0.7508185492056514  0.5948787112837913
  0.4173701148484791  0.6667265198021985  0.4990401672470844
  0.2511775637080563  0.7489904600075504  0.5955731182364268
  0.4997500750377494  0.2526581670471801  0.5972802145597722
  0.4169668218659675  0.4191651410969603  0.4987572530767843
  0.5008746190353911 -0.0006712228199646  0.5974860449144993
  0.5826211055987049  0.0828666651863134  0.4026655326311250
  0.1665089669224183  0.9169837972662291  0.5001406414099567
  0.3337175477996763  0.8319458029778599  0.4038757845572866
  0.2520772786126870  0.5009777280192799  0.5968830994576435
  0.1671829087355388  0.4176951510486879  0.5028763474482062
  0.3321072335851116  0.3320406473803741  0.4042298328339897
  0.0022868226726298  0.7509528261936153  0.5963893436940489
  0.9182278136757901  0.9174939622869438  0.4997261608050625
  0.0832645263670002  0.3325493388453744  0.4056428729557130
  0.0018095229135180 -0.0015597183344020  0.5963353774707237
  0.9173414202305504  0.1659502127684191  0.5011464187451314
  0.5822545616621114  0.5830060836164060  0.4037054336147554
  0.7492573857580018  0.7511548938118728  0.5968007155208026
 
  0.00000000E+00  0.00000000E+00  0.00000000E+00
  0.00000000E+00  0.00000000E+00  0.00000000E+00
  0.00000000E+00  0.00000000E+00  0.00000000E+00
  0.00000000E+00  0.00000000E+00  0.00000000E+00
  0.00000000E+00  0.00000000E+00  0.00000000E+00
  0.00000000E+00  0.00000000E+00  0.00000000E+00
  0.00000000E+00  0.00000000E+00  0.00000000E+00
  0.00000000E+00  0.00000000E+00  0.00000000E+00
  0.00000000E+00  0.00000000E+00  0.00000000E+00
  0.00000000E+00  0.00000000E+00  0.00000000E+00
  0.00000000E+00  0.00000000E+00  0.00000000E+00
  0.00000000E+00  0.00000000E+00  0.00000000E+00
  0.00000000E+00  0.00000000E+00  0.00000000E+00
  0.00000000E+00  0.00000000E+00  0.00000000E+00
  0.00000000E+00  0.00000000E+00  0.00000000E+00
  0.00000000E+00  0.00000000E+00  0.00000000E+00
  0.00000000E+00  0.00000000E+00  0.00000000E+00
  0.00000000E+00  0.00000000E+00  0.00000000E+00
  0.00000000E+00  0.00000000E+00  0.00000000E+00
  0.00000000E+00  0.00000000E+00  0.00000000E+00
  0.00000000E+00  0.00000000E+00  0.00000000E+00
  0.00000000E+00  0.00000000E+00  0.00000000E+00
  0.00000000E+00  0.00000000E+00  0.00000000E+00
  0.00000000E+00  0.00000000E+00  0.00000000E+00
  0.00000000E+00  0.00000000E+00  0.00000000E+00
  0.00000000E+00  0.00000000E+00  0.00000000E+00
  0.00000000E+00  0.00000000E+00  0.00000000E+00
  0.00000000E+00  0.00000000E+00  0.00000000E+00
  0.00000000E+00  0.00000000E+00  0.00000000E+00
  0.00000000E+00  0.00000000E+00  0.00000000E+00
  0.00000000E+00  0.00000000E+00  0.00000000E+00
  0.00000000E+00  0.00000000E+00  0.00000000E+00
  0.00000000E+00  0.00000000E+00  0.00000000E+00
  0.00000000E+00  0.00000000E+00  0.00000000E+00
  0.00000000E+00  0.00000000E+00  0.00000000E+00
  0.00000000E+00  0.00000000E+00  0.00000000E+00
  0.00000000E+00  0.00000000E+00  0.00000000E+00
  0.00000000E+00  0.00000000E+00  0.00000000E+00
  0.00000000E+00  0.00000000E+00  0.00000000E+00
  0.00000000E+00  0.00000000E+00  0.00000000E+00
  0.00000000E+00  0.00000000E+00  0.00000000E+00
  0.00000000E+00  0.00000000E+00  0.00000000E+00
  0.00000000E+00  0.00000000E+00  0.00000000E+00
  0.00000000E+00  0.00000000E+00  0.00000000E+00
  0.00000000E+00  0.00000000E+00  0.00000000E+00
  0.00000000E+00  0.00000000E+00  0.00000000E+00
  0.00000000E+00  0.00000000E+00  0.00000000E+00
  0.00000000E+00  0.00000000E+00  0.00000000E+00
