Au Pd                                   
   1.00000000000000     
    11.0025815152626798    0.0000000000000000    0.0000000000000000
     5.5012907576313399    9.5285150994265617    0.0000000000000000
     0.0000000000000000    0.0000000000000000   24.4917850942952882
   Au   Pd
    24    24
Direct
  0.2470905145734351  0.7492677003124811  0.6028150426310259
  0.5004833538348887  0.4994535187340752  0.6024805254364813
  0.5852801913745763  0.8298865960100910  0.3951930041864845
  0.5038230598968625 -0.0018360170119993  0.6000411052518440
  0.4153885639916771  0.9185569296338449  0.4998598763993217
  0.5860370436510075  0.0823608405103141  0.3965848681031209
  0.5029738300009809  0.7479199898149366  0.6061024060153272
  0.1646745321667468  0.9171766796463919  0.4999868081331596
  0.6664399282557550  0.1665184189413819  0.4993828350801964
  0.8303680707718177  0.3330229532482205  0.3984891073788158
  0.2495250824299723  0.2515821717007640  0.5989657431523192
  0.5004322863000273  0.2496763654773337  0.6014433748453893
  0.2488026423072226 -0.0004968548872609  0.6062165232528233
  0.3351762059050566  0.3352805372372257  0.3989166641032439
  0.3320154269729143  0.0819244038830228  0.3970902151902871
  0.0820453887746754  0.3333841672227975  0.3978551597255433
  0.9171689114297656  0.4151520538903669  0.4999977196378336
 -0.0006782131549153  0.2494009528076772  0.6020543472504504
  0.0830310714979773  0.5851707018101893  0.3966692978599030
  0.7522820125021922  0.2476779729550717  0.6028883381921628
  0.9178149188187846  0.6687264774671937  0.4987814708424395
  0.0836628394404773  0.8346433070560109  0.3962078255027023
  0.6642181848121735  0.6670677438125471  0.5003232234957377
 -0.0010827246506144  0.5042295349720031  0.6028620967956723
  0.8339943488338344  0.0827764095312802  0.4029082556870005
  0.7534720654784874 -0.0033085012366007  0.5945238022170048
  0.6650256907034943  0.4160527075381649  0.5011819515115762
  0.8322625203902795  0.5835043170470531  0.4019433007560524
  0.7510914332839315  0.4999773438657166  0.5980397766936828
  0.8335242088973698  0.8333050858623844  0.4008242806246680
  0.4161191349974372  0.6644388430457197  0.5028370515664973
  0.0826034529691027  0.0834405772967198  0.4037360844305352
  0.4153789011509860  0.4179747211365076  0.5005168853781624
  0.5832857637631935  0.3343679737543677  0.4038555874580670
  0.4150509825768288  0.1688580721478936  0.4986977433991449
  0.6663417117753252  0.9180122048011379  0.4977883282457954
  0.3343277118985204  0.8308996938968595  0.4040535618477394
  0.2487973960895286  0.5011870445898069  0.5949485494291856
  0.1678073291757787  0.6663664671349103  0.4991645203341614
  0.3361248039762971  0.5841216779627860  0.4053004060995209
  0.1687330567407989  0.4167848427489579  0.4985142113046885
  0.1662774990120034  0.1676682020490938  0.4999896758786213
 -0.0013320339322544  0.7523864654184391  0.5950043173535652
  0.9173527787990517  0.9166102927473118  0.4975063234852255
 -0.0008509014723019 -0.0018572831637937  0.5960698517035217
  0.9154021204844097  0.1673039844067806  0.5002843288370088
  0.5813372407772108  0.5831589686289989  0.4048365999474866
  0.7508996617272300  0.7502227435448234  0.5962670273488035
 
  0.00000000E+00  0.00000000E+00  0.00000000E+00
  0.00000000E+00  0.00000000E+00  0.00000000E+00
  0.00000000E+00  0.00000000E+00  0.00000000E+00
  0.00000000E+00  0.00000000E+00  0.00000000E+00
  0.00000000E+00  0.00000000E+00  0.00000000E+00
  0.00000000E+00  0.00000000E+00  0.00000000E+00
  0.00000000E+00  0.00000000E+00  0.00000000E+00
  0.00000000E+00  0.00000000E+00  0.00000000E+00
  0.00000000E+00  0.00000000E+00  0.00000000E+00
  0.00000000E+00  0.00000000E+00  0.00000000E+00
  0.00000000E+00  0.00000000E+00  0.00000000E+00
  0.00000000E+00  0.00000000E+00  0.00000000E+00
  0.00000000E+00  0.00000000E+00  0.00000000E+00
  0.00000000E+00  0.00000000E+00  0.00000000E+00
  0.00000000E+00  0.00000000E+00  0.00000000E+00
  0.00000000E+00  0.00000000E+00  0.00000000E+00
  0.00000000E+00  0.00000000E+00  0.00000000E+00
  0.00000000E+00  0.00000000E+00  0.00000000E+00
  0.00000000E+00  0.00000000E+00  0.00000000E+00
  0.00000000E+00  0.00000000E+00  0.00000000E+00
  0.00000000E+00  0.00000000E+00  0.00000000E+00
  0.00000000E+00  0.00000000E+00  0.00000000E+00
  0.00000000E+00  0.00000000E+00  0.00000000E+00
  0.00000000E+00  0.00000000E+00  0.00000000E+00
  0.00000000E+00  0.00000000E+00  0.00000000E+00
  0.00000000E+00  0.00000000E+00  0.00000000E+00
  0.00000000E+00  0.00000000E+00  0.00000000E+00
  0.00000000E+00  0.00000000E+00  0.00000000E+00
  0.00000000E+00  0.00000000E+00  0.00000000E+00
  0.00000000E+00  0.00000000E+00  0.00000000E+00
  0.00000000E+00  0.00000000E+00  0.00000000E+00
  0.00000000E+00  0.00000000E+00  0.00000000E+00
  0.00000000E+00  0.00000000E+00  0.00000000E+00
  0.00000000E+00  0.00000000E+00  0.00000000E+00
  0.00000000E+00  0.00000000E+00  0.00000000E+00
  0.00000000E+00  0.00000000E+00  0.00000000E+00
  0.00000000E+00  0.00000000E+00  0.00000000E+00
  0.00000000E+00  0.00000000E+00  0.00000000E+00
  0.00000000E+00  0.00000000E+00  0.00000000E+00
  0.00000000E+00  0.00000000E+00  0.00000000E+00
  0.00000000E+00  0.00000000E+00  0.00000000E+00
  0.00000000E+00  0.00000000E+00  0.00000000E+00
  0.00000000E+00  0.00000000E+00  0.00000000E+00
  0.00000000E+00  0.00000000E+00  0.00000000E+00
  0.00000000E+00  0.00000000E+00  0.00000000E+00
  0.00000000E+00  0.00000000E+00  0.00000000E+00
  0.00000000E+00  0.00000000E+00  0.00000000E+00
  0.00000000E+00  0.00000000E+00  0.00000000E+00
