Au  O Pd                                
   1.00000000000000     
    11.0025815152626798    0.0000000000000000    0.0000000000000000
     5.5012907576313399    9.5285150994265617    0.0000000000000000
     0.0000000000000000    0.0000000000000000   26.1917850942952910
   Au   O    Pd
    24     8    24
Selective dynamics
Direct
  0.0833333333333357  0.0833333333333357  0.3817991009012260   F   F   F
  0.5195998603437747  0.4907201116655747  0.5602469132693062   T   T   T
  0.9205809646067329  0.1724847698123176  0.4782568618910595   T   T   T
  0.7333945772416279  0.4995800325052035  0.6046263607288760   T   T   T
  0.0833333333333357  0.3333333333333357  0.3817991009012260   F   F   F
  0.9191106682756978  0.4193738162648737  0.5148335800960557   T   T   T
  0.9742188347875418  0.2589340701843063  0.6181266391456984   T   T   T
  0.8333333333333357  0.5833333333333357  0.3817991009012260   F   F   F
  0.6679947965569202  0.1678630937061696  0.4758185657844133   T   T   T
  0.9176206972188272  0.6624172011424209  0.4755325579802843   T   T   T
  0.8333333333333357  0.0833333333333357  0.3817991009012260   F   F   F
  0.9190931450568014  0.9161016751702076  0.4783943446924189   T   T   T
  0.5833333333333357  0.8333333333333357  0.3817991009012260   F   F   F
  0.5833333333333357  0.5833333333333357  0.3817991009012260   F   F   F
  0.4955435071527831  0.2585672540126169  0.5639648599740681   T   T   T
  0.3333333333333357  0.0833333333333357  0.3817991009012260   F   F   F
  0.1660140250211726  0.1693404355369579  0.4769562637899528   T   T   T
  0.2678936705481983  0.9977247846572499  0.5673845904396354   T   T   T
  0.5833333333333357  0.3333333333333357  0.3817991009012260   F   F   F
  0.1639051387607183  0.4177656037516294  0.4753968178344283   T   T   T
  0.2671991844108357  0.7503362534434858  0.5633727252823386   T   T   T
  0.3333333333333357  0.8333333333333357  0.3817991009012260   F   F   F
  0.3333333333333357  0.5833333333333357  0.3817991009012260   F   F   F
  0.1689116958290504  0.6672186249193607  0.4739545007357117   T   T   T
  0.1098370721613646  0.0493800066121671  0.6210526600511642   T   T   T
  0.1002960470314035  0.5763429954495106  0.6194649664460777   T   T   T
  0.0832295130159131  0.8361597918124580  0.6115187899853961   T   T   T
  0.1419963634795811  0.3046373450343108  0.6329134943197043   T   T   T
  0.8217498604558735  0.8437474341900000  0.6095004496112253   T   T   T
  0.3511435824394998  0.5654823030988317  0.6118394428734979   T   T   T
  0.7848980646513789  0.6443439028788831  0.6337859710125597   T   T   T
  0.5703761111765177  0.0821025343366037  0.6124827283086559   T   T   T
  0.1704986075327863  0.9167936454673797  0.4748291454859858   T   T   T
  0.2404605838284156  0.2542311679309261  0.5654104341893180   T   T   T
  0.7474095417085654  0.7497418103120433  0.5637770977467594   T   T   T
  0.5833333333333357  0.0833333333333357  0.3817991009012260   F   F   F
  0.4167288135217459  0.1661059519578143  0.4728213811267236   T   T   T
  0.5020065879402039  0.0004074320188406  0.5606914682734085   T   T   T
  0.3333333333333357  0.3333333333333357  0.3817991009012260   F   F   F
  0.6692740798097069  0.9148944063690089  0.4735453896003252   T   T   T
  0.4166114210940256  0.4160259390946457  0.4740352192247278   T   T   T
  0.8333333333333357  0.8333333333333357  0.3817991009012260   F   F   F
  0.0015471554893624  0.7404804870784397  0.5719025879542614   T   T   T
  0.4215998229322312  0.9149527552247619  0.4766310103825204   T   T   T
  0.0833333333333357  0.8333333333333357  0.3817991009012260   F   F   F
  0.9984479142340521  0.0044518306290076  0.5683162515314730   T   T   T
  0.2515972482320023  0.4901055462612301  0.5662367342430918   T   T   T
  0.5166348282180536  0.7403230287411379  0.5616241123675390   T   T   T
  0.9791751437100602  0.4933251502760961  0.6295110071802985   T   T   T
  0.0833333333333357  0.5833333333333357  0.3817991009012260   F   F   F
  0.7511760443001685  0.0175891521413700  0.5713617553057474   T   T   T
  0.6738129409069750  0.6613387433772484  0.4758381099612268   T   T   T
  0.8333333333333357  0.3333333333333357  0.3817991009012260   F   F   F
  0.6773863158536867  0.4178821171605904  0.4761905923146807   T   T   T
  0.7656713977251046  0.2555747247154037  0.5680141433722037   T   T   T
  0.4222524071790212  0.6665560147718461  0.4729331045514717   T   T   T
 
  0.00000000E+00  0.00000000E+00  0.00000000E+00
  0.00000000E+00  0.00000000E+00  0.00000000E+00
  0.00000000E+00  0.00000000E+00  0.00000000E+00
  0.00000000E+00  0.00000000E+00  0.00000000E+00
  0.00000000E+00  0.00000000E+00  0.00000000E+00
  0.00000000E+00  0.00000000E+00  0.00000000E+00
  0.00000000E+00  0.00000000E+00  0.00000000E+00
  0.00000000E+00  0.00000000E+00  0.00000000E+00
  0.00000000E+00  0.00000000E+00  0.00000000E+00
  0.00000000E+00  0.00000000E+00  0.00000000E+00
  0.00000000E+00  0.00000000E+00  0.00000000E+00
  0.00000000E+00  0.00000000E+00  0.00000000E+00
  0.00000000E+00  0.00000000E+00  0.00000000E+00
  0.00000000E+00  0.00000000E+00  0.00000000E+00
  0.00000000E+00  0.00000000E+00  0.00000000E+00
  0.00000000E+00  0.00000000E+00  0.00000000E+00
  0.00000000E+00  0.00000000E+00  0.00000000E+00
  0.00000000E+00  0.00000000E+00  0.00000000E+00
  0.00000000E+00  0.00000000E+00  0.00000000E+00
  0.00000000E+00  0.00000000E+00  0.00000000E+00
  0.00000000E+00  0.00000000E+00  0.00000000E+00
  0.00000000E+00  0.00000000E+00  0.00000000E+00
  0.00000000E+00  0.00000000E+00  0.00000000E+00
  0.00000000E+00  0.00000000E+00  0.00000000E+00
  0.00000000E+00  0.00000000E+00  0.00000000E+00
  0.00000000E+00  0.00000000E+00  0.00000000E+00
  0.00000000E+00  0.00000000E+00  0.00000000E+00
  0.00000000E+00  0.00000000E+00  0.00000000E+00
  0.00000000E+00  0.00000000E+00  0.00000000E+00
  0.00000000E+00  0.00000000E+00  0.00000000E+00
  0.00000000E+00  0.00000000E+00  0.00000000E+00
  0.00000000E+00  0.00000000E+00  0.00000000E+00
  0.00000000E+00  0.00000000E+00  0.00000000E+00
  0.00000000E+00  0.00000000E+00  0.00000000E+00
  0.00000000E+00  0.00000000E+00  0.00000000E+00
  0.00000000E+00  0.00000000E+00  0.00000000E+00
  0.00000000E+00  0.00000000E+00  0.00000000E+00
  0.00000000E+00  0.00000000E+00  0.00000000E+00
  0.00000000E+00  0.00000000E+00  0.00000000E+00
  0.00000000E+00  0.00000000E+00  0.00000000E+00
  0.00000000E+00  0.00000000E+00  0.00000000E+00
  0.00000000E+00  0.00000000E+00  0.00000000E+00
  0.00000000E+00  0.00000000E+00  0.00000000E+00
  0.00000000E+00  0.00000000E+00  0.00000000E+00
  0.00000000E+00  0.00000000E+00  0.00000000E+00
  0.00000000E+00  0.00000000E+00  0.00000000E+00
  0.00000000E+00  0.00000000E+00  0.00000000E+00
  0.00000000E+00  0.00000000E+00  0.00000000E+00
  0.00000000E+00  0.00000000E+00  0.00000000E+00
  0.00000000E+00  0.00000000E+00  0.00000000E+00
  0.00000000E+00  0.00000000E+00  0.00000000E+00
  0.00000000E+00  0.00000000E+00  0.00000000E+00
  0.00000000E+00  0.00000000E+00  0.00000000E+00
  0.00000000E+00  0.00000000E+00  0.00000000E+00
  0.00000000E+00  0.00000000E+00  0.00000000E+00
  0.00000000E+00  0.00000000E+00  0.00000000E+00
