Au  O Pd                                
   1.00000000000000     
    11.0025815152626798    0.0000000000000000    0.0000000000000000
     5.5012907576313399    9.5285150994265617    0.0000000000000000
     0.0000000000000000    0.0000000000000000   26.1917850942952910
   Au   O    Pd
    24     8    24
Selective dynamics
Direct
  0.0833333333333357  0.0833333333333357  0.3817991009012260   F   F   F
  0.5114848694270168  0.4926792179704712  0.5644242425510133   T   T   T
  0.9166977634663096  0.1671266896125903  0.4794166135961746   T   T   T
  0.7528139000057853  0.4938696811715515  0.5768769578111923   T   T   T
  0.0833333333333357  0.3333333333333357  0.3817991009012260   F   F   F
  0.9137339022972415  0.4179523023183079  0.4832719120061597   T   T   T
 -0.0311998950427467  0.2569856696559871  0.6115555533469953   T   T   T
  0.8333333333333357  0.5833333333333357  0.3817991009012260   F   F   F
  0.6628748969917858  0.1673499094367267  0.4753596423859361   T   T   T
  0.9136078934956833  0.6677039513678396  0.4762990561519251   T   T   T
  0.8333333333333357  0.0833333333333357  0.3817991009012260   F   F   F
  0.9154004283062813  0.9161635853096122  0.4798992609944419   T   T   T
  0.5833333333333357  0.8333333333333357  0.3817991009012260   F   F   F
  0.5833333333333357  0.5833333333333357  0.3817991009012260   F   F   F
  0.4899695290083189  0.2590408056126804  0.5638360663145846   T   T   T
  0.3333333333333357  0.0833333333333357  0.3817991009012260   F   F   F
  0.1650674976656852  0.1661917759438521  0.4775001839764286   T   T   T
  0.2610405913796733 -0.0026085279363699  0.5685785092418901   T   T   T
  0.5833333333333357  0.3333333333333357  0.3817991009012260   F   F   F
  0.1641822207225924  0.4186853098576832  0.4762055149353530   T   T   T
  0.2594374772308883  0.7501691663251346  0.5636702227539877   T   T   T
  0.3333333333333357  0.8333333333333357  0.3817991009012260   F   F   F
  0.3333333333333357  0.5833333333333357  0.3817991009012260   F   F   F
  0.1655306814203668  0.6677545129465601  0.4741894609725513   T   T   T
  0.1036664404094257  0.0486333522616573  0.6230766353211331   T   T   T
  0.0942291841492649  0.5732903695229333  0.6221425763631487   T   T   T
  0.0793191905724402  0.8325151587858999  0.6145851095461972   T   T   T
  0.1350071676383048  0.3006811093984748  0.6313880043701030   T   T   T
  0.8144279033420831  0.8430946439310996  0.6117394972120792   T   T   T
  0.3439831980663598  0.5655883120259605  0.6148149619828404   T   T   T
  0.7783897782227048  0.6320569070604143  0.6279219876914675   T   T   T
  0.5631873444886505  0.0828004541237544  0.6126956437031230   T   T   T
  0.1668327672425466  0.9162482003642817  0.4751768971310422   T   T   T
  0.2390028230898015  0.2521173106694864  0.5654591989789283   T   T   T
  0.7378940777675547  0.7564099102641879  0.5637607839295627   T   T   T
  0.5833333333333357  0.0833333333333357  0.3817991009012260   F   F   F
  0.4129547558623218  0.1671593845561487  0.4725936664553932   T   T   T
  0.4943513841751764  0.0024180480396511  0.5605867223557630   T   T   T
  0.3333333333333357  0.3333333333333357  0.3817991009012260   F   F   F
  0.6643587858141972  0.9172339497346721  0.4732089584502858   T   T   T
  0.4131376117694986  0.4170659407287364  0.4746941196052774   T   T   T
  0.8333333333333357  0.8333333333333357  0.3817991009012260   F   F   F
 -0.0042601261698320  0.7391827298673010  0.5751172325450876   T   T   T
  0.4163489894100725  0.9168173803708970  0.4765415851031903   T   T   T
  0.0833333333333357  0.8333333333333357  0.3817991009012260   F   F   F
 -0.0073483700708104  0.0007744699002352  0.5717183802518684   T   T   T
  0.2456478502215972  0.4903271076827357  0.5685784273313824   T   T   T
  0.5073510431346150  0.7433534341920951  0.5611799153837619   T   T   T
 -0.0258909745388743  0.4893639440959898  0.6282632111004753   T   T   T
  0.0833333333333357  0.5833333333333357  0.3817991009012260   F   F   F
  0.7446703735266068  0.0140336577414883  0.5714203208158807   T   T   T
  0.6658223231144289  0.6666182084736371  0.4752534044105385   T   T   T
  0.8333333333333357  0.3333333333333357  0.3817991009012260   F   F   F
  0.6667019802729443  0.4185912473439512  0.4780290392085846   T   T   T
  0.7566407807172657  0.2481044739126691  0.5675136791583849   T   T   T
  0.4171909489838643  0.6675772516326595  0.4733439878444228   T   T   T
 
  0.00000000E+00  0.00000000E+00  0.00000000E+00
  0.00000000E+00  0.00000000E+00  0.00000000E+00
  0.00000000E+00  0.00000000E+00  0.00000000E+00
  0.00000000E+00  0.00000000E+00  0.00000000E+00
  0.00000000E+00  0.00000000E+00  0.00000000E+00
  0.00000000E+00  0.00000000E+00  0.00000000E+00
  0.00000000E+00  0.00000000E+00  0.00000000E+00
  0.00000000E+00  0.00000000E+00  0.00000000E+00
  0.00000000E+00  0.00000000E+00  0.00000000E+00
  0.00000000E+00  0.00000000E+00  0.00000000E+00
  0.00000000E+00  0.00000000E+00  0.00000000E+00
  0.00000000E+00  0.00000000E+00  0.00000000E+00
  0.00000000E+00  0.00000000E+00  0.00000000E+00
  0.00000000E+00  0.00000000E+00  0.00000000E+00
  0.00000000E+00  0.00000000E+00  0.00000000E+00
  0.00000000E+00  0.00000000E+00  0.00000000E+00
  0.00000000E+00  0.00000000E+00  0.00000000E+00
  0.00000000E+00  0.00000000E+00  0.00000000E+00
  0.00000000E+00  0.00000000E+00  0.00000000E+00
  0.00000000E+00  0.00000000E+00  0.00000000E+00
  0.00000000E+00  0.00000000E+00  0.00000000E+00
  0.00000000E+00  0.00000000E+00  0.00000000E+00
  0.00000000E+00  0.00000000E+00  0.00000000E+00
  0.00000000E+00  0.00000000E+00  0.00000000E+00
  0.00000000E+00  0.00000000E+00  0.00000000E+00
  0.00000000E+00  0.00000000E+00  0.00000000E+00
  0.00000000E+00  0.00000000E+00  0.00000000E+00
  0.00000000E+00  0.00000000E+00  0.00000000E+00
  0.00000000E+00  0.00000000E+00  0.00000000E+00
  0.00000000E+00  0.00000000E+00  0.00000000E+00
  0.00000000E+00  0.00000000E+00  0.00000000E+00
  0.00000000E+00  0.00000000E+00  0.00000000E+00
  0.00000000E+00  0.00000000E+00  0.00000000E+00
  0.00000000E+00  0.00000000E+00  0.00000000E+00
  0.00000000E+00  0.00000000E+00  0.00000000E+00
  0.00000000E+00  0.00000000E+00  0.00000000E+00
  0.00000000E+00  0.00000000E+00  0.00000000E+00
  0.00000000E+00  0.00000000E+00  0.00000000E+00
  0.00000000E+00  0.00000000E+00  0.00000000E+00
  0.00000000E+00  0.00000000E+00  0.00000000E+00
  0.00000000E+00  0.00000000E+00  0.00000000E+00
  0.00000000E+00  0.00000000E+00  0.00000000E+00
  0.00000000E+00  0.00000000E+00  0.00000000E+00
  0.00000000E+00  0.00000000E+00  0.00000000E+00
  0.00000000E+00  0.00000000E+00  0.00000000E+00
  0.00000000E+00  0.00000000E+00  0.00000000E+00
  0.00000000E+00  0.00000000E+00  0.00000000E+00
  0.00000000E+00  0.00000000E+00  0.00000000E+00
  0.00000000E+00  0.00000000E+00  0.00000000E+00
  0.00000000E+00  0.00000000E+00  0.00000000E+00
  0.00000000E+00  0.00000000E+00  0.00000000E+00
  0.00000000E+00  0.00000000E+00  0.00000000E+00
  0.00000000E+00  0.00000000E+00  0.00000000E+00
  0.00000000E+00  0.00000000E+00  0.00000000E+00
  0.00000000E+00  0.00000000E+00  0.00000000E+00
  0.00000000E+00  0.00000000E+00  0.00000000E+00
