Au Pd                                   
   1.00000000000000     
    11.0025815152626798    0.0000000000000000    0.0000000000000000
     5.5012907576313399    9.5285150994265617    0.0000000000000000
     0.0000000000000000    0.0000000000000000   24.4917850942952882
   Au   Pd
    24    24
Direct
  0.2478071553118595  0.7504643143605680  0.6061133879702587
  0.6676583672878214  0.6657297270615185  0.4983405036919150
  0.8352378773656097  0.5859554504490854  0.3961207834359430
  0.6692554346834119  0.4133941635179177  0.4978503892423207
  0.8348456654164129  0.3295851775213300  0.3950239470809696
  0.5001333301640913  0.7503386744572342  0.6041239495787564
  0.5011657258406219  0.4963051744088205  0.6073171395382709
  0.4156600273869215  0.6680431682668106  0.5004836204115339
  0.5826291775641687  0.5827974074337576  0.3912139174499256
  0.4168536737275402  0.4151584047346858  0.5004789331682870
  0.4165068925813999  0.1659588758959264  0.4989350762294787
  0.6673197295287634  0.9157601496525877  0.4998210901444654
  0.3317250933164058  0.8341021418509932  0.3985229348024695
  0.1648564050569450  0.6661726469822905  0.5012760458654394
  0.2518877979303218  0.2510319198721550  0.6022442992306960
  0.7481778213342853  0.7524807726586235  0.6042770160176105
 -0.0049651501015492  0.2510440804944076  0.6001567980365013
  0.2490341791458622  0.0006256420230619  0.6023520526588179
  0.1654038190493506  0.1652903579644011  0.4988927744640985
 -0.0012247385029511  0.5005988637656292  0.5991644438465829
  0.3370358996267173  0.0828071726335813  0.3954318863770128
 -0.0022587986703148  0.7528854734928415  0.6053763323738376
  0.9165223484056039  0.9180224093667712  0.5005251263439275
  0.0861140190064428  0.3347262854006426  0.3968129885214987
  0.6676953586585278  0.1660633211190685  0.4991184495372697
  0.7474323180268341  0.0043279900021298  0.5974803488918891
  0.9179638485566033  0.4159019719515519  0.4971299769249795
  0.1647174021572597  0.4163835175850894  0.4998919846688682
  0.8338676865981912  0.0824342427407438  0.4027222647669957
  0.9169088223993775  0.1666029701157675  0.4989139134579075
  0.7477222469026530  0.5001392024488663  0.5949716113375294
  0.8343031476257723  0.8345947257122284  0.4028486557129773
  0.7486199891180728  0.2491509090335315  0.5954649034716394
 -0.0028292951294276  0.0015544958447093  0.5973179858048657
  0.9172545392395538  0.6641370474006094  0.5000496554569445
  0.5851699058368494  0.8336935149034760  0.4015030172291513
  0.0852826046042862  0.5852934944832116  0.4035842288053027
  0.3352519028204009  0.3346033475166213  0.4019722361041126
  0.5012677126143819  0.2488984317626593  0.5971263509480615
  0.0824024166408479  0.8336559411859507  0.4037315899165884
  0.5832844207693779  0.3315776550922190  0.4013800643304853
  0.5002798646423896  0.0011015580758127  0.5972129842686844
  0.5864146330782476  0.0833699523653844  0.4017425875785151
  0.1666552661859827  0.9165552744452098  0.5011397926123456
  0.2504071836136523  0.4998626808497409  0.5986489010725682
  0.3333603018714132  0.5825862643834778  0.4028531824580152
  0.4159572150147253  0.9162836133981737  0.4994911591164876
  0.0832287556982845  0.0819494233181252  0.4028487190471990
 
  0.00000000E+00  0.00000000E+00  0.00000000E+00
  0.00000000E+00  0.00000000E+00  0.00000000E+00
  0.00000000E+00  0.00000000E+00  0.00000000E+00
  0.00000000E+00  0.00000000E+00  0.00000000E+00
  0.00000000E+00  0.00000000E+00  0.00000000E+00
  0.00000000E+00  0.00000000E+00  0.00000000E+00
  0.00000000E+00  0.00000000E+00  0.00000000E+00
  0.00000000E+00  0.00000000E+00  0.00000000E+00
  0.00000000E+00  0.00000000E+00  0.00000000E+00
  0.00000000E+00  0.00000000E+00  0.00000000E+00
  0.00000000E+00  0.00000000E+00  0.00000000E+00
  0.00000000E+00  0.00000000E+00  0.00000000E+00
  0.00000000E+00  0.00000000E+00  0.00000000E+00
  0.00000000E+00  0.00000000E+00  0.00000000E+00
  0.00000000E+00  0.00000000E+00  0.00000000E+00
  0.00000000E+00  0.00000000E+00  0.00000000E+00
  0.00000000E+00  0.00000000E+00  0.00000000E+00
  0.00000000E+00  0.00000000E+00  0.00000000E+00
  0.00000000E+00  0.00000000E+00  0.00000000E+00
  0.00000000E+00  0.00000000E+00  0.00000000E+00
  0.00000000E+00  0.00000000E+00  0.00000000E+00
  0.00000000E+00  0.00000000E+00  0.00000000E+00
  0.00000000E+00  0.00000000E+00  0.00000000E+00
  0.00000000E+00  0.00000000E+00  0.00000000E+00
  0.00000000E+00  0.00000000E+00  0.00000000E+00
  0.00000000E+00  0.00000000E+00  0.00000000E+00
  0.00000000E+00  0.00000000E+00  0.00000000E+00
  0.00000000E+00  0.00000000E+00  0.00000000E+00
  0.00000000E+00  0.00000000E+00  0.00000000E+00
  0.00000000E+00  0.00000000E+00  0.00000000E+00
  0.00000000E+00  0.00000000E+00  0.00000000E+00
  0.00000000E+00  0.00000000E+00  0.00000000E+00
  0.00000000E+00  0.00000000E+00  0.00000000E+00
  0.00000000E+00  0.00000000E+00  0.00000000E+00
  0.00000000E+00  0.00000000E+00  0.00000000E+00
  0.00000000E+00  0.00000000E+00  0.00000000E+00
  0.00000000E+00  0.00000000E+00  0.00000000E+00
  0.00000000E+00  0.00000000E+00  0.00000000E+00
  0.00000000E+00  0.00000000E+00  0.00000000E+00
  0.00000000E+00  0.00000000E+00  0.00000000E+00
  0.00000000E+00  0.00000000E+00  0.00000000E+00
  0.00000000E+00  0.00000000E+00  0.00000000E+00
  0.00000000E+00  0.00000000E+00  0.00000000E+00
  0.00000000E+00  0.00000000E+00  0.00000000E+00
  0.00000000E+00  0.00000000E+00  0.00000000E+00
  0.00000000E+00  0.00000000E+00  0.00000000E+00
  0.00000000E+00  0.00000000E+00  0.00000000E+00
  0.00000000E+00  0.00000000E+00  0.00000000E+00
