Au Pd                                   
   1.00000000000000     
    11.0025815152626798    0.0000000000000000    0.0000000000000000
     5.5012907576313399    9.5285150994265617    0.0000000000000000
     0.0000000000000000    0.0000000000000000   24.4917850942952882
   Au   Pd
    24    24
Selective dynamics
Direct
  0.7509436051250787  0.7483717108656062  0.6161615655961027   T   T   T
  0.8333333333333357  0.5833333333333357  0.4083001692812189   F   F   F
  0.6641530904810069  0.6665404527925823  0.5113214635590972   T   T   T
  0.0833333333333357  0.5833333333333357  0.4083001692812189   F   F   F
  0.9187070440581563  0.6667308078814588  0.5107950733932526   T   T   T
  0.1671785378393899  0.1684051203288576  0.5085546781421086   T   T   T
  0.0010153588918725  0.2494528867130401  0.6159188179941356   T   T   T
  0.9188005630779339  0.4163097361145206  0.5114909854455199   T   T   T
  0.9147712150603692  0.1659767318777823  0.5085155806687320   T   T   T
  0.3333333333333357  0.0833333333333357  0.4083001692812189   F   F   F
  0.3333333333333357  0.3333333333333357  0.4083001692812189   F   F   F
  0.6626877120494994  0.4174145803497250  0.5106284395357044   T   T   T
  0.9162497711278959  0.9163810218202076  0.5068859444045515   T   T   T
  0.8333333333333357  0.3333333333333357  0.4083001692812189   F   F   F
  0.7523626267729943  0.0000292899989297  0.6135653799256588   T   T   T
  0.3333333333333357  0.5833333333333357  0.4083001692812189   F   F   F
  0.3333333333333357  0.8333333333333357  0.4083001692812189   F   F   F
  0.1668474416842148  0.9142276681457721  0.5082995787346495   T   T   T
  0.6644158693223070  0.9212924517730926  0.5087655809107705   T   T   T
  0.4158535751842910  0.9172607239948084  0.5123949154931466   T   T   T
  0.5833333333333357  0.8333333333333357  0.4083001692812189   F   F   F
  0.5833333333333357  0.3333333333333357  0.4083001692812189   F   F   F
  0.4978758034943022  0.5031413676233489  0.6124789279133032   T   T   T
  0.4989766651580053  0.2502926783726849  0.6088829267662268   T   T   T
  0.1687396009841220  0.6642067771261980  0.5079223859907422   T   T   T
  0.2502692987933985  0.2496325222129318  0.6052555738192319   T   T   T
  0.1682686281829544  0.4169182181984749  0.5081660682270420   T   T   T
  0.2506018296555159 -0.0004892424377174  0.6079076369669786   T   T   T
  0.0013468139663056 -0.0008117695505843  0.6069177252688173   T   T   T
  0.0833333333333357  0.8333333333333357  0.4083001692812189   F   F   F
  0.0023750316608160  0.4997136112339592  0.6078577220900764   T   T   T
  0.0833333333333357  0.3333333333333357  0.4083001692812189   F   F   F
  0.2471630043223559  0.5018146881469713  0.6038323479349506   T   T   T
  0.0025080209093546  0.7495303666872959  0.6065965383680685   T   T   T
  0.5833333333333357  0.0833333333333357  0.4083001692812189   F   F   F
  0.4151063354087043  0.6648718591711483  0.5098718084038513   T   T   T
  0.4997946419853510 -0.0002313551859485  0.6078490340808398   T   T   T
  0.4144794709655958  0.4172383918803290  0.5095279247183210   T   T   T
  0.0833333333333357  0.0833333333333357  0.4083001692812189   F   F   F
  0.8333333333333357  0.0833333333333357  0.4083001692812189   F   F   F
  0.7517275819186262  0.2494814470268375  0.6070786124981736   T   T   T
  0.8333333333333357  0.8333333333333357  0.4083001692812189   F   F   F
  0.7505661044519572  0.4996326766005870  0.6091449115649051   T   T   T
  0.4992281560452898  0.7506832176864031  0.6087344573549673   T   T   T
  0.6637518468188122  0.1681630701786796  0.5079568235521453   T   T   T
  0.5833333333333357  0.5833333333333357  0.4083001692812189   F   F   F
  0.4164266749328256  0.1700938348496305  0.5089607234678619   T   T   T
  0.2482543439149404  0.7519459506070193  0.6054522137609673   T   T   T
 
  0.00000000E+00  0.00000000E+00  0.00000000E+00
  0.00000000E+00  0.00000000E+00  0.00000000E+00
  0.00000000E+00  0.00000000E+00  0.00000000E+00
  0.00000000E+00  0.00000000E+00  0.00000000E+00
  0.00000000E+00  0.00000000E+00  0.00000000E+00
  0.00000000E+00  0.00000000E+00  0.00000000E+00
  0.00000000E+00  0.00000000E+00  0.00000000E+00
  0.00000000E+00  0.00000000E+00  0.00000000E+00
  0.00000000E+00  0.00000000E+00  0.00000000E+00
  0.00000000E+00  0.00000000E+00  0.00000000E+00
  0.00000000E+00  0.00000000E+00  0.00000000E+00
  0.00000000E+00  0.00000000E+00  0.00000000E+00
  0.00000000E+00  0.00000000E+00  0.00000000E+00
  0.00000000E+00  0.00000000E+00  0.00000000E+00
  0.00000000E+00  0.00000000E+00  0.00000000E+00
  0.00000000E+00  0.00000000E+00  0.00000000E+00
  0.00000000E+00  0.00000000E+00  0.00000000E+00
  0.00000000E+00  0.00000000E+00  0.00000000E+00
  0.00000000E+00  0.00000000E+00  0.00000000E+00
  0.00000000E+00  0.00000000E+00  0.00000000E+00
  0.00000000E+00  0.00000000E+00  0.00000000E+00
  0.00000000E+00  0.00000000E+00  0.00000000E+00
  0.00000000E+00  0.00000000E+00  0.00000000E+00
  0.00000000E+00  0.00000000E+00  0.00000000E+00
  0.00000000E+00  0.00000000E+00  0.00000000E+00
  0.00000000E+00  0.00000000E+00  0.00000000E+00
  0.00000000E+00  0.00000000E+00  0.00000000E+00
  0.00000000E+00  0.00000000E+00  0.00000000E+00
  0.00000000E+00  0.00000000E+00  0.00000000E+00
  0.00000000E+00  0.00000000E+00  0.00000000E+00
  0.00000000E+00  0.00000000E+00  0.00000000E+00
  0.00000000E+00  0.00000000E+00  0.00000000E+00
  0.00000000E+00  0.00000000E+00  0.00000000E+00
  0.00000000E+00  0.00000000E+00  0.00000000E+00
  0.00000000E+00  0.00000000E+00  0.00000000E+00
  0.00000000E+00  0.00000000E+00  0.00000000E+00
  0.00000000E+00  0.00000000E+00  0.00000000E+00
  0.00000000E+00  0.00000000E+00  0.00000000E+00
  0.00000000E+00  0.00000000E+00  0.00000000E+00
  0.00000000E+00  0.00000000E+00  0.00000000E+00
  0.00000000E+00  0.00000000E+00  0.00000000E+00
  0.00000000E+00  0.00000000E+00  0.00000000E+00
  0.00000000E+00  0.00000000E+00  0.00000000E+00
  0.00000000E+00  0.00000000E+00  0.00000000E+00
  0.00000000E+00  0.00000000E+00  0.00000000E+00
  0.00000000E+00  0.00000000E+00  0.00000000E+00
  0.00000000E+00  0.00000000E+00  0.00000000E+00
  0.00000000E+00  0.00000000E+00  0.00000000E+00
