Au  O Pd                                
   1.00000000000000     
    11.0025815152626798    0.0000000000000000    0.0000000000000000
     5.5012907576313399    9.5285150994265617    0.0000000000000000
     0.0000000000000000    0.0000000000000000   26.1917850942952910
   Au   O    Pd
    24     8    24
Selective dynamics
Direct
  0.0833333333333357  0.0833333333333357  0.3817991009012260   F   F   F
  0.6641710302625560  0.1720276779887230  0.4818149642434816   T   T   T
  0.9230851291364069  0.1677731277319900  0.4791074684309121   T   T   T
  0.6624221638967643  0.9199525929387453  0.4803934574146523   T   T   T
  0.8333333333333357  0.8333333333333357  0.3817991009012260   F   F   F
  0.0833333333333357  0.3333333333333357  0.3817991009012260   F   F   F
  0.9251189482290247  0.4077552004635186  0.4837232665653722   T   T   T
  0.6654400698462188  0.6658777692200244  0.4811055714092234   T   T   T
  0.8333333333333357  0.5833333333333357  0.3817991009012260   F   F   F
  0.0833333333333357  0.5833333333333357  0.3817991009012260   F   F   F
  0.9185027507157880  0.6661995722273567  0.4809359282056731   T   T   T
  0.8333333333333357  0.0833333333333357  0.3817991009012260   F   F   F
  0.8333333333333357  0.3333333333333357  0.3817991009012260   F   F   F
  0.4024672224087565  0.9249979782307231  0.4797098196243165   T   T   T
  0.5833333333333357  0.8333333333333357  0.3817991009012260   F   F   F
  0.3333333333333357  0.0833333333333357  0.3817991009012260   F   F   F
  0.5833333333333357  0.5833333333333357  0.3817991009012260   F   F   F
  0.5833333333333357  0.3333333333333357  0.3817991009012260   F   F   F
  0.3333333333333357  0.3333333333333357  0.3817991009012260   F   F   F
  0.1685043398150121  0.4123573169936243  0.4841037598938177   T   T   T
  0.4059069098542224  0.1707668629131377  0.4826142776452954   T   T   T
  0.5833333333333357  0.0833333333333357  0.3817991009012260   F   F   F
  0.3333333333333357  0.5833333333333357  0.3817991009012260   F   F   F
  0.3333333333333357  0.8333333333333357  0.3817991009012260   F   F   F
  0.3351622734418608  0.3465785460254079  0.6192219670411606   T   T   T
  0.4141266288617879  0.0141952831920153  0.6380568036315531   T   T   T
  0.0657895833400943  0.3703308618113211  0.6307653787336327   T   T   T
  0.0652202533467702  0.0171750406335459  0.6339567018720109   T   T   T
  0.8348114314258067  0.8391656534472807  0.6137835518956383   T   T   T
  0.3250170478565947  0.6107701067639066  0.6096658564962757   T   T   T
  0.5874852054137129  0.3338436710008140  0.6099380876778951   T   T   T
  0.8179374758546155  0.3515696456272900  0.6191322005749136   T   T   T
  0.7440795035292112  0.7530425172588546  0.5733359434695591   T   T   T
  0.4957898403512537  0.2464703064710554  0.5714567490517287   T   T   T
  0.2471493924309620  0.7665628862126450  0.5611073972029781   T   T   T
  0.2625703827265126 -0.0287747020845567  0.6241548897882259   T   T   T
  0.1673678690021749  0.1563892332925393  0.5248349228833534   T   T   T
  0.4152412687840955  0.6672171097275268  0.4749194440206764   T   T   T
  0.1645568717221646  0.9203082459804974  0.4754862341663551   T   T   T
  0.5016411735633686  0.5104136290288739  0.5679567727438785   T   T   T
  0.4139393303396058  0.4203132249429803  0.4761025335430319   T   T   T
  0.0010977192583915  0.7563537961818064  0.5675426163748419   T   T   T
  0.2377957578438066  0.5119470127052858  0.5702667557169522   T   T   T
  0.4933557605878783  0.7600906723055214  0.5669372639875467   T   T   T
  0.9173710512557907  0.9190924773570134  0.4758542600982610   T   T   T
  0.0833333333333357  0.8333333333333357  0.3817991009012260   F   F   F
  0.7484264211777162  0.0071190026772896  0.5694094951311297   T   T   T
  0.6656622150142105  0.4188953895984899  0.4779757869965588   T   T   T
  0.7626733538257173  0.2461046483168375  0.5698119639235105   T   T   T
  0.0002363611708130  0.5007375689934543  0.5719961889671731   T   T   T
  0.0230383022916020  0.2154264157195980  0.6260811606556763   T   T   T
  0.7506092554510573  0.5103831463814009  0.5709420537186168   T   T   T
  0.0069350514539230  0.0019910321633608  0.5643783023633018   T   T   T
  0.1657177510890236  0.6691430929484686  0.4762661165269426   T   T   T
  0.2629624126438712  0.2141423372535978  0.6261749013865828   T   T   T
  0.4914171646963227  0.0026404467077354  0.5690013725322600   T   T   T
 
  0.00000000E+00  0.00000000E+00  0.00000000E+00
  0.00000000E+00  0.00000000E+00  0.00000000E+00
  0.00000000E+00  0.00000000E+00  0.00000000E+00
  0.00000000E+00  0.00000000E+00  0.00000000E+00
  0.00000000E+00  0.00000000E+00  0.00000000E+00
  0.00000000E+00  0.00000000E+00  0.00000000E+00
  0.00000000E+00  0.00000000E+00  0.00000000E+00
  0.00000000E+00  0.00000000E+00  0.00000000E+00
  0.00000000E+00  0.00000000E+00  0.00000000E+00
  0.00000000E+00  0.00000000E+00  0.00000000E+00
  0.00000000E+00  0.00000000E+00  0.00000000E+00
  0.00000000E+00  0.00000000E+00  0.00000000E+00
  0.00000000E+00  0.00000000E+00  0.00000000E+00
  0.00000000E+00  0.00000000E+00  0.00000000E+00
  0.00000000E+00  0.00000000E+00  0.00000000E+00
  0.00000000E+00  0.00000000E+00  0.00000000E+00
  0.00000000E+00  0.00000000E+00  0.00000000E+00
  0.00000000E+00  0.00000000E+00  0.00000000E+00
  0.00000000E+00  0.00000000E+00  0.00000000E+00
  0.00000000E+00  0.00000000E+00  0.00000000E+00
  0.00000000E+00  0.00000000E+00  0.00000000E+00
  0.00000000E+00  0.00000000E+00  0.00000000E+00
  0.00000000E+00  0.00000000E+00  0.00000000E+00
  0.00000000E+00  0.00000000E+00  0.00000000E+00
  0.00000000E+00  0.00000000E+00  0.00000000E+00
  0.00000000E+00  0.00000000E+00  0.00000000E+00
  0.00000000E+00  0.00000000E+00  0.00000000E+00
  0.00000000E+00  0.00000000E+00  0.00000000E+00
  0.00000000E+00  0.00000000E+00  0.00000000E+00
  0.00000000E+00  0.00000000E+00  0.00000000E+00
  0.00000000E+00  0.00000000E+00  0.00000000E+00
  0.00000000E+00  0.00000000E+00  0.00000000E+00
  0.00000000E+00  0.00000000E+00  0.00000000E+00
  0.00000000E+00  0.00000000E+00  0.00000000E+00
  0.00000000E+00  0.00000000E+00  0.00000000E+00
  0.00000000E+00  0.00000000E+00  0.00000000E+00
  0.00000000E+00  0.00000000E+00  0.00000000E+00
  0.00000000E+00  0.00000000E+00  0.00000000E+00
  0.00000000E+00  0.00000000E+00  0.00000000E+00
  0.00000000E+00  0.00000000E+00  0.00000000E+00
  0.00000000E+00  0.00000000E+00  0.00000000E+00
  0.00000000E+00  0.00000000E+00  0.00000000E+00
  0.00000000E+00  0.00000000E+00  0.00000000E+00
  0.00000000E+00  0.00000000E+00  0.00000000E+00
  0.00000000E+00  0.00000000E+00  0.00000000E+00
  0.00000000E+00  0.00000000E+00  0.00000000E+00
  0.00000000E+00  0.00000000E+00  0.00000000E+00
  0.00000000E+00  0.00000000E+00  0.00000000E+00
  0.00000000E+00  0.00000000E+00  0.00000000E+00
  0.00000000E+00  0.00000000E+00  0.00000000E+00
  0.00000000E+00  0.00000000E+00  0.00000000E+00
  0.00000000E+00  0.00000000E+00  0.00000000E+00
  0.00000000E+00  0.00000000E+00  0.00000000E+00
  0.00000000E+00  0.00000000E+00  0.00000000E+00
  0.00000000E+00  0.00000000E+00  0.00000000E+00
  0.00000000E+00  0.00000000E+00  0.00000000E+00
