Au  O Pd                                
   1.00000000000000     
    11.0025815152626798    0.0000000000000000    0.0000000000000000
     5.5012907576313399    9.5285150994265617    0.0000000000000000
     0.0000000000000000    0.0000000000000000   26.1917850942952910
   Au   O    Pd
    24     8    24
Selective dynamics
Direct
  0.0833333333333357  0.0833333333333357  0.3817991009012260   F   F   F
  0.3333333333333357  0.8333333333333357  0.3817991009012260   F   F   F
  0.8333333333333357  0.0833333333333357  0.3817991009012260   F   F   F
  0.8333333333333357  0.8333333333333357  0.3817991009012260   F   F   F
  0.0069768670145873  0.0018543008711384  0.5689095583432620   T   T   T
  0.0833333333333357  0.3333333333333357  0.3817991009012260   F   F   F
  0.9161869486178603  0.4129343153340479  0.4738395883006798   T   T   T
 -0.0545969617493913  0.2784068127359489  0.6335883171200489   T   T   T
  0.7581138528356610  0.2387791764689054  0.5644862116125222   T   T   T
  0.0833333333333357  0.5833333333333357  0.3817991009012260   F   F   F
  0.6650089946682283  0.4141908158896846  0.4757194595026974   T   T   T
  0.5044475377778873  0.7453495991342188  0.5656191137864521   T   T   T
 -0.0088915356023854  0.4881084756101230  0.5616987031932035   T   T   T
  0.5833333333333357  0.0833333333333357  0.3817991009012260   F   F   F
  0.5833333333333357  0.8333333333333357  0.3817991009012260   F   F   F
  0.5833333333333357  0.5833333333333357  0.3817991009012260   F   F   F
  0.4474193771456746  0.2577335376930571  0.6018939038834623   T   T   T
  0.2745794880940180  0.0199326993706739  0.6081395455512063   T   T   T
  0.5833333333333357  0.3333333333333357  0.3817991009012260   F   F   F
  0.3333333333333357  0.3333333333333357  0.3817991009012260   F   F   F
  0.2323223961907120  0.2431222138211999  0.5620091582399880   T   T   T
  0.4157189630202417  0.1652916164226831  0.4749111178084134   T   T   T
  0.3333333333333357  0.5833333333333357  0.3817991009012260   F   F   F
  0.0833333333333357  0.8333333333333357  0.3817991009012260   F   F   F
  0.0742392238831098  0.0735183835630625  0.6346600748056102   T   T   T
  0.3319435338088513  0.5797161391663895  0.6068993186256305   T   T   T
  0.0878332463397854  0.5706170974557702  0.6107174765773449   T   T   T
  0.8277223296971211  0.8218971225078056  0.6084151469490635   T   T   T
  0.3401584776756299  0.8106897062691339  0.6191955838132867   T   T   T
  0.8021709081392624  0.4762679133149203  0.6384382377326479   T   T   T
  0.5875613879905102  0.0513446967754123  0.6166046369365848   T   T   T
  0.5849538993280844  0.3319070521979625  0.6175160587042382   T   T   T
  0.4143265017398183  0.6647260803712917  0.4760694486549070   T   T   T
  0.3333333333333357  0.0833333333333357  0.3817991009012260   F   F   F
  0.1649007845233728  0.1615953409134146  0.4736627892476453   T   T   T
  0.1674618382361174  0.4161219902118762  0.4742361894058240   T   T   T
  0.4977205587210405 -0.0057557478324679  0.5623282741737607   T   T   T
  0.1648225559141946  0.6680575492742238  0.4765938451762570   T   T   T
  0.7466964529936133  0.7454706097058204  0.5603771734998922   T   T   T
  0.2416585143732833  0.7548829593313345  0.5651657625410901   T   T   T
  0.1682570680593703  0.9158607451922128  0.4788134502288788   T   T   T
  0.5079821770668446  0.4943702008993464  0.5676365659919720   T   T   T
  0.2527200395046029  0.4884917146042392  0.5627887484615393   T   T   T
  0.0046473370669817  0.7466536964342034  0.5680216000058202   T   T   T
  0.9177030530250438  0.9159763474030883  0.4808029260508118   T   T   T
  0.6654287409343800  0.1621104759437775  0.4780913208090472   T   T   T
  0.7508326040864230 -0.0017374008854810  0.5675191845822767   T   T   T
  0.8333333333333357  0.3333333333333357  0.3817991009012260   F   F   F
  0.9167017494368062  0.6667324494886009  0.4722822903644239   T   T   T
  0.8333333333333357  0.5833333333333357  0.3817991009012260   F   F   F
  0.6642087909139006  0.6673050707635270  0.4763563845249183   T   T   T
  0.7485825456483178  0.4960324929510224  0.5673355395067829   T   T   T
  0.9180232041103589  0.1621489917732706  0.4767949803319366   T   T   T
  0.6675294104303586  0.9148126970700660  0.4728227503242945   T   T   T
  0.4151407291246703  0.4153148926584549  0.4777468088790272   T   T   T
  0.4141688920844550  0.9158735241062207  0.4759732978393260   T   T   T
 
  0.00000000E+00  0.00000000E+00  0.00000000E+00
  0.00000000E+00  0.00000000E+00  0.00000000E+00
  0.00000000E+00  0.00000000E+00  0.00000000E+00
  0.00000000E+00  0.00000000E+00  0.00000000E+00
  0.00000000E+00  0.00000000E+00  0.00000000E+00
  0.00000000E+00  0.00000000E+00  0.00000000E+00
  0.00000000E+00  0.00000000E+00  0.00000000E+00
  0.00000000E+00  0.00000000E+00  0.00000000E+00
  0.00000000E+00  0.00000000E+00  0.00000000E+00
  0.00000000E+00  0.00000000E+00  0.00000000E+00
  0.00000000E+00  0.00000000E+00  0.00000000E+00
  0.00000000E+00  0.00000000E+00  0.00000000E+00
  0.00000000E+00  0.00000000E+00  0.00000000E+00
  0.00000000E+00  0.00000000E+00  0.00000000E+00
  0.00000000E+00  0.00000000E+00  0.00000000E+00
  0.00000000E+00  0.00000000E+00  0.00000000E+00
  0.00000000E+00  0.00000000E+00  0.00000000E+00
  0.00000000E+00  0.00000000E+00  0.00000000E+00
  0.00000000E+00  0.00000000E+00  0.00000000E+00
  0.00000000E+00  0.00000000E+00  0.00000000E+00
  0.00000000E+00  0.00000000E+00  0.00000000E+00
  0.00000000E+00  0.00000000E+00  0.00000000E+00
  0.00000000E+00  0.00000000E+00  0.00000000E+00
  0.00000000E+00  0.00000000E+00  0.00000000E+00
  0.00000000E+00  0.00000000E+00  0.00000000E+00
  0.00000000E+00  0.00000000E+00  0.00000000E+00
  0.00000000E+00  0.00000000E+00  0.00000000E+00
  0.00000000E+00  0.00000000E+00  0.00000000E+00
  0.00000000E+00  0.00000000E+00  0.00000000E+00
  0.00000000E+00  0.00000000E+00  0.00000000E+00
  0.00000000E+00  0.00000000E+00  0.00000000E+00
  0.00000000E+00  0.00000000E+00  0.00000000E+00
  0.00000000E+00  0.00000000E+00  0.00000000E+00
  0.00000000E+00  0.00000000E+00  0.00000000E+00
  0.00000000E+00  0.00000000E+00  0.00000000E+00
  0.00000000E+00  0.00000000E+00  0.00000000E+00
  0.00000000E+00  0.00000000E+00  0.00000000E+00
  0.00000000E+00  0.00000000E+00  0.00000000E+00
  0.00000000E+00  0.00000000E+00  0.00000000E+00
  0.00000000E+00  0.00000000E+00  0.00000000E+00
  0.00000000E+00  0.00000000E+00  0.00000000E+00
  0.00000000E+00  0.00000000E+00  0.00000000E+00
  0.00000000E+00  0.00000000E+00  0.00000000E+00
  0.00000000E+00  0.00000000E+00  0.00000000E+00
  0.00000000E+00  0.00000000E+00  0.00000000E+00
  0.00000000E+00  0.00000000E+00  0.00000000E+00
  0.00000000E+00  0.00000000E+00  0.00000000E+00
  0.00000000E+00  0.00000000E+00  0.00000000E+00
  0.00000000E+00  0.00000000E+00  0.00000000E+00
  0.00000000E+00  0.00000000E+00  0.00000000E+00
  0.00000000E+00  0.00000000E+00  0.00000000E+00
  0.00000000E+00  0.00000000E+00  0.00000000E+00
  0.00000000E+00  0.00000000E+00  0.00000000E+00
  0.00000000E+00  0.00000000E+00  0.00000000E+00
  0.00000000E+00  0.00000000E+00  0.00000000E+00
  0.00000000E+00  0.00000000E+00  0.00000000E+00
