Au Pd                                   
   1.00000000000000     
    11.0025815152626798    0.0000000000000000    0.0000000000000000
     5.5012907576313399    9.5285150994265617    0.0000000000000000
     0.0000000000000000    0.0000000000000000   24.4917850942952882
   Au   Pd
    24    24
Selective dynamics
Direct
  0.0833333333333357  0.0833333333333357  0.4083001692812189   F   F   F
  0.8333333333333357  0.5833333333333357  0.4083001692812189   F   F   F
  0.0833333333333357  0.8333333333333357  0.4083001692812189   F   F   F
  0.5833333333333357  0.5833333333333357  0.4083001692812189   F   F   F
  0.9162038806888134  0.6672571128833709  0.5072601703021162   T   T   T
  0.3333333333333357  0.0833333333333357  0.4083001692812189   F   F   F
  0.0008923350855010  0.2496017720218991  0.6170019310832375   T   T   T
  0.7494227594584800  0.5013439302571885  0.6113340765889986   T   T   T
  0.0833333333333357  0.3333333333333357  0.4083001692812189   F   F   F
  0.9163057884622398  0.1677702298442869  0.5114174955324741   T   T   T
  0.0005158110608416  0.7522370844300381  0.6113409430107797   T   T   T
  0.7472271538662463  0.2481504276914656  0.6171997272229565   T   T   T
  0.0031591983892517  0.4998740933552211  0.6098999616642763   T   T   T
  0.2519072939737207 -0.0007562156537368  0.6168012814531648   T   T   T
  0.6662749654748991  0.4188022115629074  0.5100056008757724   T   T   T
  0.1701918100501529  0.6631282721859815  0.5073281414906828   T   T   T
  0.6671301492867688  0.1644071677574592  0.5096255169576255   T   T   T
  0.8333333333333357  0.0833333333333357  0.4083001692812189   F   F   F
  0.1694185831221555  0.9141482887439738  0.5106464932502274   T   T   T
  0.5000800489329443  0.7496561060648987  0.6099986657828255   T   T   T
  0.4211883659323752  0.9128793606502560  0.5076843848086776   T   T   T
  0.4166736047165133  0.1688783661005621  0.5077302839500382   T   T   T
  0.5833333333333357  0.3333333333333357  0.4083001692812189   F   F   F
  0.1660509527355802  0.1693614027767213  0.5135986467958459   T   T   T
  0.2531990262186365  0.4985082301019916  0.6041573620371632   T   T   T
  0.3333333333333357  0.5833333333333357  0.4083001692812189   F   F   F
  0.2532009731859416  0.2504986192227021  0.6076987898515551   T   T   T
  0.1670270438817970  0.4171127466566704  0.5074359621287866   T   T   T
 -0.0001362722124094 -0.0000362999614415  0.6074923845050042   T   T   T
  0.9170889198225667  0.9150876308009378  0.5091447407187151   T   T   T
  0.0833333333333357  0.5833333333333357  0.4083001692812189   F   F   F
  0.9167322151656162  0.4176808262938395  0.5095799506259707   T   T   T
  0.3333333333333357  0.8333333333333357  0.4083001692812189   F   F   F
  0.3333333333333357  0.3333333333333357  0.4083001692812189   F   F   F
  0.6685645582029170  0.9151655486694135  0.5052774840426552   T   T   T
  0.6675765210460726  0.6667962668321056  0.5084098185061350   T   T   T
  0.5026916334475987  0.0006270257163167  0.6043046924099393   T   T   T
  0.4164214204681233  0.4175091455738170  0.5066007368853429   T   T   T
  0.2509380531225293  0.7480129689643112  0.6065372836935575   T   T   T
  0.4977123020747465  0.4996621860641027  0.6054502954110449   T   T   T
  0.5833333333333357  0.8333333333333357  0.4083001692812189   F   F   F
  0.8333333333333357  0.8333333333333357  0.4083001692812189   F   F   F
  0.4184226468890931  0.6651651608402737  0.5074614877200933   T   T   T
  0.8333333333333357  0.3333333333333357  0.4083001692812189   F   F   F
  0.7488130656870308 -0.0006001213533510  0.6051534719533322   T   T   T
  0.4982282477727448  0.2514873663199270  0.6052400664363214   T   T   T
  0.5833333333333357  0.0833333333333357  0.4083001692812189   F   F   F
  0.7491528626710785  0.7531757298553553  0.6039211837509355   T   T   T
 
  0.00000000E+00  0.00000000E+00  0.00000000E+00
  0.00000000E+00  0.00000000E+00  0.00000000E+00
  0.00000000E+00  0.00000000E+00  0.00000000E+00
  0.00000000E+00  0.00000000E+00  0.00000000E+00
  0.00000000E+00  0.00000000E+00  0.00000000E+00
  0.00000000E+00  0.00000000E+00  0.00000000E+00
  0.00000000E+00  0.00000000E+00  0.00000000E+00
  0.00000000E+00  0.00000000E+00  0.00000000E+00
  0.00000000E+00  0.00000000E+00  0.00000000E+00
  0.00000000E+00  0.00000000E+00  0.00000000E+00
  0.00000000E+00  0.00000000E+00  0.00000000E+00
  0.00000000E+00  0.00000000E+00  0.00000000E+00
  0.00000000E+00  0.00000000E+00  0.00000000E+00
  0.00000000E+00  0.00000000E+00  0.00000000E+00
  0.00000000E+00  0.00000000E+00  0.00000000E+00
  0.00000000E+00  0.00000000E+00  0.00000000E+00
  0.00000000E+00  0.00000000E+00  0.00000000E+00
  0.00000000E+00  0.00000000E+00  0.00000000E+00
  0.00000000E+00  0.00000000E+00  0.00000000E+00
  0.00000000E+00  0.00000000E+00  0.00000000E+00
  0.00000000E+00  0.00000000E+00  0.00000000E+00
  0.00000000E+00  0.00000000E+00  0.00000000E+00
  0.00000000E+00  0.00000000E+00  0.00000000E+00
  0.00000000E+00  0.00000000E+00  0.00000000E+00
  0.00000000E+00  0.00000000E+00  0.00000000E+00
  0.00000000E+00  0.00000000E+00  0.00000000E+00
  0.00000000E+00  0.00000000E+00  0.00000000E+00
  0.00000000E+00  0.00000000E+00  0.00000000E+00
  0.00000000E+00  0.00000000E+00  0.00000000E+00
  0.00000000E+00  0.00000000E+00  0.00000000E+00
  0.00000000E+00  0.00000000E+00  0.00000000E+00
  0.00000000E+00  0.00000000E+00  0.00000000E+00
  0.00000000E+00  0.00000000E+00  0.00000000E+00
  0.00000000E+00  0.00000000E+00  0.00000000E+00
  0.00000000E+00  0.00000000E+00  0.00000000E+00
  0.00000000E+00  0.00000000E+00  0.00000000E+00
  0.00000000E+00  0.00000000E+00  0.00000000E+00
  0.00000000E+00  0.00000000E+00  0.00000000E+00
  0.00000000E+00  0.00000000E+00  0.00000000E+00
  0.00000000E+00  0.00000000E+00  0.00000000E+00
  0.00000000E+00  0.00000000E+00  0.00000000E+00
  0.00000000E+00  0.00000000E+00  0.00000000E+00
  0.00000000E+00  0.00000000E+00  0.00000000E+00
  0.00000000E+00  0.00000000E+00  0.00000000E+00
  0.00000000E+00  0.00000000E+00  0.00000000E+00
  0.00000000E+00  0.00000000E+00  0.00000000E+00
  0.00000000E+00  0.00000000E+00  0.00000000E+00
  0.00000000E+00  0.00000000E+00  0.00000000E+00
