Au  O Pd                                
   1.00000000000000     
    11.0025815152626798    0.0000000000000000    0.0000000000000000
     5.5012907576313399    9.5285150994265617    0.0000000000000000
     0.0000000000000000    0.0000000000000000   26.1917850942952910
   Au   O    Pd
    24     8    24
Selective dynamics
Direct
  0.5833333333333357  0.0833333333333357  0.3817991009012260   F   F   F
  0.3333333333333357  0.5833333333333357  0.3817991009012260   F   F   F
  0.6667654016460162  0.1668347874923962  0.4757323406239001   T   T   T
  0.6648716459527867  0.6693355429277097  0.5172248998362242   T   T   T
  0.8333333333333357  0.5833333333333357  0.3817991009012260   F   F   F
  0.7462891348494141  0.2670615367221064  0.5653637536003849   T   T   T
  0.9116436284319049  0.4207061422458426  0.4716984895140461   T   T   T
  0.0015331831772325  0.2433882562259216  0.5610733879315073   T   T   T
  0.2371370129614771  0.5020911821725381  0.5655796188336288   T   T   T
  0.0833333333333357  0.5833333333333357  0.3817991009012260   F   F   F
  0.7516160023312266  0.9858815420120057  0.5773848834556392   T   T   T
  0.0833333333333357  0.8333333333333357  0.3817991009012260   F   F   F
 -0.0306542262799069  0.5142058896855614  0.5643653424180083   T   T   T
  0.9118430434300533  0.9157628842275455  0.4731172932497011   T   T   T
  0.4154159895880128  0.1631293516278640  0.4791190175758764   T   T   T
  0.5833333333333357  0.8333333333333357  0.3817991009012260   F   F   F
  0.5833333333333357  0.3333333333333357  0.3817991009012260   F   F   F
  0.4971849819072806  0.5138274777004550  0.5670905670919939   T   T   T
  0.2724904611437984 -0.0175310403055867  0.5571743849101743   T   T   T
  0.4193742360065152  0.6718622216503189  0.4759167046642919   T   T   T
  0.3333333333333357  0.3333333333333357  0.3817991009012260   F   F   F
  0.5833333333333357  0.5833333333333357  0.3817991009012260   F   F   F
  0.2632490846967692  0.2392728543543494  0.5690941983783709   T   T   T
  0.4983753812978990  0.2603337434736216  0.5706998376167151   T   T   T
  0.5828581274253074  0.8381766067083234  0.6540885308610910   T   T   T
  0.0905704531398032  0.3111951579242703  0.6169305411743338   T   T   T
  0.9690415682767692  0.7342505512073110  0.6373784950392253   T   T   T
  0.5641722116895572  0.5503208600964805  0.6406030236186330   T   T   T
  0.8427646933380253  0.5704409230336580  0.6517248960025942   T   T   T
  0.8621939019706245  0.0808621851362294  0.6125523826466442   T   T   T
  0.2683717506415959  0.8516733552113026  0.6203095645121423   T   T   T
  0.5777992203548292  0.1032410894867056  0.6281981607028275   T   T   T
  0.1617329162683668  0.4195068262455297  0.4745104846944853   T   T   T
  0.0833333333333357  0.0833333333333357  0.3817991009012260   F   F   F
  0.4294495640332452  0.9104912381130580  0.4713224874545057   T   T   T
  0.1635002532340328  0.6687980987570938  0.4766426629978718   T   T   T
  0.4871142008791260 -0.0062346019802844  0.6044365709276981   T   T   T
  0.3333333333333357  0.8333333333333357  0.3817991009012260   F   F   F
  0.1669589025501667  0.9166035658973745  0.4712840476998196   T   T   T
  0.4173317547065351  0.4180540760466057  0.4798385597715223   T   T   T
 -0.0078869847401557  0.7488117211493663  0.5646931057436210   T   T   T
  0.4768036937999757  0.7557097937759396  0.6181338759545807   T   T   T
  0.2399094943117545  0.7481797998583121  0.5645541684166848   T   T   T
  0.8333333333333357  0.0833333333333357  0.3817991009012260   F   F   F
  0.9043232244559644  0.6714820387659991  0.4751752553572988   T   T   T
  0.8333333333333357  0.3333333333333357  0.3817991009012260   F   F   F
  0.6670519408539312  0.4222324234425541  0.4759786881728547   T   T   T
  0.0833333333333357  0.3333333333333357  0.3817991009012260   F   F   F
  0.0050690831044538 -0.0035731262403868  0.5580390599127458   T   T   T
  0.7458312152740763  0.5026629592741583  0.6095598429114896   T   T   T
  0.9170460621577010  0.1683631455283860  0.4711075522058137   T   T   T
  0.8333333333333357  0.8333333333333357  0.3817991009012260   F   F   F
  0.6648350749716025  0.9136228377198248  0.4929345256604844   T   T   T
  0.7823076782677663  0.7676427949295906  0.6414946096027079   T   T   T
  0.1695739661631969  0.1634042831406786  0.4702714672889164   T   T   T
  0.3333333333333357  0.0833333333333357  0.3817991009012260   F   F   F
 
  0.00000000E+00  0.00000000E+00  0.00000000E+00
  0.00000000E+00  0.00000000E+00  0.00000000E+00
  0.00000000E+00  0.00000000E+00  0.00000000E+00
  0.00000000E+00  0.00000000E+00  0.00000000E+00
  0.00000000E+00  0.00000000E+00  0.00000000E+00
  0.00000000E+00  0.00000000E+00  0.00000000E+00
  0.00000000E+00  0.00000000E+00  0.00000000E+00
  0.00000000E+00  0.00000000E+00  0.00000000E+00
  0.00000000E+00  0.00000000E+00  0.00000000E+00
  0.00000000E+00  0.00000000E+00  0.00000000E+00
  0.00000000E+00  0.00000000E+00  0.00000000E+00
  0.00000000E+00  0.00000000E+00  0.00000000E+00
  0.00000000E+00  0.00000000E+00  0.00000000E+00
  0.00000000E+00  0.00000000E+00  0.00000000E+00
  0.00000000E+00  0.00000000E+00  0.00000000E+00
  0.00000000E+00  0.00000000E+00  0.00000000E+00
  0.00000000E+00  0.00000000E+00  0.00000000E+00
  0.00000000E+00  0.00000000E+00  0.00000000E+00
  0.00000000E+00  0.00000000E+00  0.00000000E+00
  0.00000000E+00  0.00000000E+00  0.00000000E+00
  0.00000000E+00  0.00000000E+00  0.00000000E+00
  0.00000000E+00  0.00000000E+00  0.00000000E+00
  0.00000000E+00  0.00000000E+00  0.00000000E+00
  0.00000000E+00  0.00000000E+00  0.00000000E+00
  0.00000000E+00  0.00000000E+00  0.00000000E+00
  0.00000000E+00  0.00000000E+00  0.00000000E+00
  0.00000000E+00  0.00000000E+00  0.00000000E+00
  0.00000000E+00  0.00000000E+00  0.00000000E+00
  0.00000000E+00  0.00000000E+00  0.00000000E+00
  0.00000000E+00  0.00000000E+00  0.00000000E+00
  0.00000000E+00  0.00000000E+00  0.00000000E+00
  0.00000000E+00  0.00000000E+00  0.00000000E+00
  0.00000000E+00  0.00000000E+00  0.00000000E+00
  0.00000000E+00  0.00000000E+00  0.00000000E+00
  0.00000000E+00  0.00000000E+00  0.00000000E+00
  0.00000000E+00  0.00000000E+00  0.00000000E+00
  0.00000000E+00  0.00000000E+00  0.00000000E+00
  0.00000000E+00  0.00000000E+00  0.00000000E+00
  0.00000000E+00  0.00000000E+00  0.00000000E+00
  0.00000000E+00  0.00000000E+00  0.00000000E+00
  0.00000000E+00  0.00000000E+00  0.00000000E+00
  0.00000000E+00  0.00000000E+00  0.00000000E+00
  0.00000000E+00  0.00000000E+00  0.00000000E+00
  0.00000000E+00  0.00000000E+00  0.00000000E+00
  0.00000000E+00  0.00000000E+00  0.00000000E+00
  0.00000000E+00  0.00000000E+00  0.00000000E+00
  0.00000000E+00  0.00000000E+00  0.00000000E+00
  0.00000000E+00  0.00000000E+00  0.00000000E+00
  0.00000000E+00  0.00000000E+00  0.00000000E+00
  0.00000000E+00  0.00000000E+00  0.00000000E+00
  0.00000000E+00  0.00000000E+00  0.00000000E+00
  0.00000000E+00  0.00000000E+00  0.00000000E+00
  0.00000000E+00  0.00000000E+00  0.00000000E+00
  0.00000000E+00  0.00000000E+00  0.00000000E+00
  0.00000000E+00  0.00000000E+00  0.00000000E+00
  0.00000000E+00  0.00000000E+00  0.00000000E+00
