Au Pd                                   
   1.00000000000000     
    11.0025815152626798    0.0000000000000000    0.0000000000000000
     5.5012907576313399    9.5285150994265617    0.0000000000000000
     0.0000000000000000    0.0000000000000000   24.4917850942952882
   Au   Pd
    24    24
Direct
  0.2518638821351569 -0.0014342923362002  0.6055624510532162
  0.5820245001198994  0.3345478145827001  0.3940425624038397
  0.4160098197924963  0.6672735165957403  0.4995833062243596
  0.5833784295663844  0.0833797388800925  0.3958056099678419
  0.5858459120187788  0.8326315401042497  0.3959311473844144
  0.4179840451507412  0.9175244793985807  0.4989192390534968
  0.5035749566157105  0.7461353368604894  0.6022785101922151
  0.2483333626021941  0.4996714709653240  0.6023175453060129
  0.1661122386226666  0.6656593304464592  0.5008729906085535
  0.3294907006542681  0.5855212763653896  0.3960347415392269
  0.8370526266366873  0.0807452329073277  0.3939604426297740
  0.6642575249471441  0.1669857029566974  0.4996408811324213
  0.7492494424052327 -0.0042735109038803  0.6041562844487852
  0.5833461822513568  0.5859460616360518  0.3936736354874784
  0.4978674230603966  0.2487645514777426  0.6019686224286905
  0.3296779256270351  0.0867512972484739  0.3958637723319080
  0.8378191826052052  0.3341246439226462  0.3948237420569662
  0.9160263144948806  0.9156303505783659  0.5012834470838825
  0.6668627478720646  0.4179876694188002  0.4988865310833645
  0.7485608585743958  0.2511940590582922  0.6076600190320914
 -0.0007248547426246  0.2532629325673699  0.6059997981023086
  0.0019767540272649 -0.0042630080442822  0.6077094031008045
  0.9171042659196412  0.1678109935607979  0.5013995269424821
  0.1667531232622688  0.1692745008684245  0.5010823328306755
  0.8357307568487897  0.5840318979842134  0.4034869381273980
  0.6681392644157153  0.6670746620058435  0.4983306531949262
  0.7503194666902218  0.4989475341870253  0.5956440100039451
  0.8366969728858981  0.8310419099723055  0.4033383742537449
  0.4994507671024151  0.4989725791054416  0.5965455871567823
  0.0843832499173717  0.0823796741419291  0.4049207268478147
  0.2501964515987216  0.7480908670532032  0.5990156421334979
  0.5004304884829384 -0.0016658806244534  0.5945314252892160
  0.0829651820045048  0.3364010353376888  0.4042447517408662
  0.9165406905614037  0.4192631500787152  0.4996675059646918
  0.0817484898714172  0.5833690303678429  0.4042402589458937
  0.9152587318970902  0.6652490558634208  0.4996248003744755
 -0.0023113232794903  0.5011702831983618  0.5952696930034520
  0.0839963100127544  0.8348113436735212  0.4048033216571923
  0.4158729621627986  0.4156398620598567  0.4995943497019474
 -0.0010193526982144  0.7474145948814964  0.5985200548699084
  0.1675713583050091  0.4171377399923027  0.5006789388857201
  0.2491445887568867  0.2499617405780233  0.5967400786678410
  0.3307754817205072  0.8354145425629894  0.4031670547624520
  0.1661764473244348  0.9180691576014863  0.5035723755641620
  0.6673981394535521  0.9157430888364338  0.4982224721177986
  0.4169663820243792  0.1678968754890001  0.4984958170598873
  0.3309017844596702  0.3359545915661444  0.4037948138695960
  0.7522193452619799  0.7467789749715559  0.5940938133819814
 
  0.00000000E+00  0.00000000E+00  0.00000000E+00
  0.00000000E+00  0.00000000E+00  0.00000000E+00
  0.00000000E+00  0.00000000E+00  0.00000000E+00
  0.00000000E+00  0.00000000E+00  0.00000000E+00
  0.00000000E+00  0.00000000E+00  0.00000000E+00
  0.00000000E+00  0.00000000E+00  0.00000000E+00
  0.00000000E+00  0.00000000E+00  0.00000000E+00
  0.00000000E+00  0.00000000E+00  0.00000000E+00
  0.00000000E+00  0.00000000E+00  0.00000000E+00
  0.00000000E+00  0.00000000E+00  0.00000000E+00
  0.00000000E+00  0.00000000E+00  0.00000000E+00
  0.00000000E+00  0.00000000E+00  0.00000000E+00
  0.00000000E+00  0.00000000E+00  0.00000000E+00
  0.00000000E+00  0.00000000E+00  0.00000000E+00
  0.00000000E+00  0.00000000E+00  0.00000000E+00
  0.00000000E+00  0.00000000E+00  0.00000000E+00
  0.00000000E+00  0.00000000E+00  0.00000000E+00
  0.00000000E+00  0.00000000E+00  0.00000000E+00
  0.00000000E+00  0.00000000E+00  0.00000000E+00
  0.00000000E+00  0.00000000E+00  0.00000000E+00
  0.00000000E+00  0.00000000E+00  0.00000000E+00
  0.00000000E+00  0.00000000E+00  0.00000000E+00
  0.00000000E+00  0.00000000E+00  0.00000000E+00
  0.00000000E+00  0.00000000E+00  0.00000000E+00
  0.00000000E+00  0.00000000E+00  0.00000000E+00
  0.00000000E+00  0.00000000E+00  0.00000000E+00
  0.00000000E+00  0.00000000E+00  0.00000000E+00
  0.00000000E+00  0.00000000E+00  0.00000000E+00
  0.00000000E+00  0.00000000E+00  0.00000000E+00
  0.00000000E+00  0.00000000E+00  0.00000000E+00
  0.00000000E+00  0.00000000E+00  0.00000000E+00
  0.00000000E+00  0.00000000E+00  0.00000000E+00
  0.00000000E+00  0.00000000E+00  0.00000000E+00
  0.00000000E+00  0.00000000E+00  0.00000000E+00
  0.00000000E+00  0.00000000E+00  0.00000000E+00
  0.00000000E+00  0.00000000E+00  0.00000000E+00
  0.00000000E+00  0.00000000E+00  0.00000000E+00
  0.00000000E+00  0.00000000E+00  0.00000000E+00
  0.00000000E+00  0.00000000E+00  0.00000000E+00
  0.00000000E+00  0.00000000E+00  0.00000000E+00
  0.00000000E+00  0.00000000E+00  0.00000000E+00
  0.00000000E+00  0.00000000E+00  0.00000000E+00
  0.00000000E+00  0.00000000E+00  0.00000000E+00
  0.00000000E+00  0.00000000E+00  0.00000000E+00
  0.00000000E+00  0.00000000E+00  0.00000000E+00
  0.00000000E+00  0.00000000E+00  0.00000000E+00
  0.00000000E+00  0.00000000E+00  0.00000000E+00
  0.00000000E+00  0.00000000E+00  0.00000000E+00
