Au Pd                                   
   1.00000000000000     
    11.0025815152626798    0.0000000000000000    0.0000000000000000
     5.5012907576313399    9.5285150994265617    0.0000000000000000
     0.0000000000000000    0.0000000000000000   24.4917850942952882
   Au   Pd
    24    24
Direct
  0.2491311955381240  0.7495380386274676  0.6048723918509263
  0.6691903127245810  0.6642965968315886  0.5004331352705144
  0.6700158463594194  0.4120099339570236  0.5001355007968533
  0.8336835486466400  0.0856551335244112  0.3970422976201343
  0.5017095772817611  0.7485153777762330  0.6088206723588919
  0.4165905046020793  0.9182648551091864  0.5002436412097321
  0.5848872353553566  0.8306873509517917  0.3962416779047567
  0.4169041333668681  0.6654829025522202  0.5009259950224653
  0.4177937585632628  0.4133792412550892  0.4996203929225582
  0.5007306107313139  0.0038848312500058  0.6007373515093981
  0.5832380317459555  0.0843419258009146  0.3973181014846832
  0.1654610784488285  0.9175533607820399  0.5011218417921717
  0.2495933142336280  0.4992684933543274  0.6035518877362192
  0.3340889329986902  0.5822091902647596  0.3962198067312194
  0.1676803765649599  0.4137118053556464  0.4991280648270146
  0.7528330260478919  0.7503090030438290  0.6039904305544175
  0.2488170068312863  0.0033848949931470  0.6066340935601506
 -0.0049968279672317  0.0028464414222231  0.6046135135536885
  0.0801411465104699  0.3354022913172967  0.3972811960340544
 -0.0025355374873555  0.2544599458970883  0.6009385792548619
  0.0837427838801661  0.8326658626537204  0.3960694174727476
  0.9158002413107317  0.9166772763069072  0.4989330640388700
  0.9175623550073324  0.6648775519206688  0.4995093265274765
  0.3309278352920126  0.0845775655020014  0.3972386448588957
  0.6662133380503127  0.9165425939211073  0.4985398317667693
  0.8345912440251773  0.8310240528828942  0.4012568486595768
  0.7489969564061836  0.5003776123431866  0.5977171686287113
  0.9167806965486626  0.1658923692745783  0.5010112091461850
  0.8334476686200298  0.5836991570005868  0.4020512983090178
  0.7468141779557730  0.2522101479185556  0.5965970585240868
  0.2499425090741143  0.2514776929138867  0.5958099754538395
  0.8316383934175964  0.3355083128586467  0.4031137164082523
  0.7483783239205718  0.0034979195618999  0.5948360383934458
  0.6673669461720219  0.1634188263209339  0.4976515420204083
  0.1667171636419977  0.1659643178130150  0.5000470510288626
  0.9194868868399101  0.4118635638534388  0.4996920754658948
  0.1672650805958426  0.6656422758792864  0.4994749128698409
  0.0825544108534323  0.5836645962489935  0.4014927564186003
  0.5007949993764341  0.4995369972226197  0.5986021127462714
  0.3328853725735954  0.3348002247255965  0.4013069626799052
  0.5849150530230196  0.5819263419263881  0.4023108771950890
  0.5011119242577787  0.2506169507455602  0.5954815972324284
 -0.0004643274160730  0.5010178816178401  0.5973527124535207
  0.5835669889223988  0.3344083548003981  0.4016805669578447
  0.4187651641801944  0.1642374214936343  0.4983197143314969
  0.3336653976083275  0.8326485921026130  0.4031345863094249
 -0.0004928456573519  0.7511056516776676  0.5968395684291532
  0.0820679904232793  0.0849182744470846  0.4040587936786729
 
  0.00000000E+00  0.00000000E+00  0.00000000E+00
  0.00000000E+00  0.00000000E+00  0.00000000E+00
  0.00000000E+00  0.00000000E+00  0.00000000E+00
  0.00000000E+00  0.00000000E+00  0.00000000E+00
  0.00000000E+00  0.00000000E+00  0.00000000E+00
  0.00000000E+00  0.00000000E+00  0.00000000E+00
  0.00000000E+00  0.00000000E+00  0.00000000E+00
  0.00000000E+00  0.00000000E+00  0.00000000E+00
  0.00000000E+00  0.00000000E+00  0.00000000E+00
  0.00000000E+00  0.00000000E+00  0.00000000E+00
  0.00000000E+00  0.00000000E+00  0.00000000E+00
  0.00000000E+00  0.00000000E+00  0.00000000E+00
  0.00000000E+00  0.00000000E+00  0.00000000E+00
  0.00000000E+00  0.00000000E+00  0.00000000E+00
  0.00000000E+00  0.00000000E+00  0.00000000E+00
  0.00000000E+00  0.00000000E+00  0.00000000E+00
  0.00000000E+00  0.00000000E+00  0.00000000E+00
  0.00000000E+00  0.00000000E+00  0.00000000E+00
  0.00000000E+00  0.00000000E+00  0.00000000E+00
  0.00000000E+00  0.00000000E+00  0.00000000E+00
  0.00000000E+00  0.00000000E+00  0.00000000E+00
  0.00000000E+00  0.00000000E+00  0.00000000E+00
  0.00000000E+00  0.00000000E+00  0.00000000E+00
  0.00000000E+00  0.00000000E+00  0.00000000E+00
  0.00000000E+00  0.00000000E+00  0.00000000E+00
  0.00000000E+00  0.00000000E+00  0.00000000E+00
  0.00000000E+00  0.00000000E+00  0.00000000E+00
  0.00000000E+00  0.00000000E+00  0.00000000E+00
  0.00000000E+00  0.00000000E+00  0.00000000E+00
  0.00000000E+00  0.00000000E+00  0.00000000E+00
  0.00000000E+00  0.00000000E+00  0.00000000E+00
  0.00000000E+00  0.00000000E+00  0.00000000E+00
  0.00000000E+00  0.00000000E+00  0.00000000E+00
  0.00000000E+00  0.00000000E+00  0.00000000E+00
  0.00000000E+00  0.00000000E+00  0.00000000E+00
  0.00000000E+00  0.00000000E+00  0.00000000E+00
  0.00000000E+00  0.00000000E+00  0.00000000E+00
  0.00000000E+00  0.00000000E+00  0.00000000E+00
  0.00000000E+00  0.00000000E+00  0.00000000E+00
  0.00000000E+00  0.00000000E+00  0.00000000E+00
  0.00000000E+00  0.00000000E+00  0.00000000E+00
  0.00000000E+00  0.00000000E+00  0.00000000E+00
  0.00000000E+00  0.00000000E+00  0.00000000E+00
  0.00000000E+00  0.00000000E+00  0.00000000E+00
  0.00000000E+00  0.00000000E+00  0.00000000E+00
  0.00000000E+00  0.00000000E+00  0.00000000E+00
  0.00000000E+00  0.00000000E+00  0.00000000E+00
  0.00000000E+00  0.00000000E+00  0.00000000E+00
