Au  O Pd                                
   1.00000000000000     
    11.0025815152626798    0.0000000000000000    0.0000000000000000
     5.5012907576313399    9.5285150994265617    0.0000000000000000
     0.0000000000000000    0.0000000000000000   26.1917850942952910
   Au   O    Pd
    24     8    24
Selective dynamics
Direct
  0.0833333333333357  0.0833333333333357  0.3817991009012260   F   F   F
  0.1691483910506147  0.6651886507351805  0.4723316082754788   T   T   T
  0.5833333333333357  0.8333333333333357  0.3817991009012260   F   F   F
  0.9166450301205846  0.1685305271359483  0.4767231597733066   T   T   T
  0.0127120441180559  0.9615537257378544  0.6022381206154119   T   T   T
  0.0833333333333357  0.3333333333333357  0.3817991009012260   F   F   F
  0.7746916535786799 -0.0158723889420629  0.5626107390346848   T   T   T
  0.8333333333333357  0.0833333333333357  0.3817991009012260   F   F   F
  0.8333333333333357  0.5833333333333357  0.3817991009012260   F   F   F
  0.0833333333333357  0.5833333333333357  0.3817991009012260   F   F   F
  0.5016349984814868  0.7442296956591501  0.5675498340066192   T   T   T
  0.5833333333333357  0.5833333333333357  0.3817991009012260   F   F   F
  0.4138259087957227  0.9186100875682502  0.4767507694041794   T   T   T
  0.9199459041805050  0.9131873553255340  0.4743494916251185   T   T   T
  0.7620980266956418  0.4859810516781704  0.5624755261458226   T   T   T
  0.4165581138800122  0.4162025945156012  0.4767669425332415   T   T   T
  0.5833333333333357  0.3333333333333357  0.3817991009012260   F   F   F
  0.1615219886221667  0.1744755237982296  0.4805661082393528   T   T   T
  0.4867677624686020 -0.0003081537956683  0.5699360625317349   T   T   T
  0.4154307792363487  0.1693310389936904  0.4750735597990927   T   T   T
  0.7544510856781719  0.7440212831959139  0.5607473868878931   T   T   T
  0.2504731476880068  0.7522665747195953  0.5638867888950974   T   T   T
  0.3333333333333357  0.8333333333333357  0.3817991009012260   F   F   F
  0.2694390995164276  0.5159345630083207  0.5955865248418410   T   T   T
  0.1370649014256640  0.0459668744676545  0.6325809334231000   T   T   T
  0.0690251301900103  0.6220405812716777  0.6305115398727439   T   T   T
  0.1006815566649052  0.3321174423169502  0.6323728673252389   T   T   T
  0.3482785207042752  0.3119284290128556  0.6171304484180056   T   T   T
  0.8324891960188444  0.4444950738721244  0.6387444147736249   T   T   T
  0.7858565472925497  0.7170535370486996  0.6374559726774500   T   T   T
  0.8538231117899364  0.1672688235538289  0.6313449443712572   T   T   T
  0.6009590954670775  0.0714407012010035  0.6125935756011359   T   T   T
  0.1658828033656682  0.9197554913679598  0.4748354807549187   T   T   T
  0.2320075204169222  0.2624694264124722  0.5721486680213462   T   T   T
  0.1647111329440010  0.4194626630576828  0.4770851268298482   T   T   T
  0.5833333333333357  0.0833333333333357  0.3817991009012260   F   F   F
  0.3333333333333357  0.3333333333333357  0.3817991009012260   F   F   F
  0.8333333333333357  0.8333333333333357  0.3817991009012260   F   F   F
  0.2413675130066159  0.0056760317053288  0.5670922190865203   T   T   T
  0.3333333333333357  0.0833333333333357  0.3817991009012260   F   F   F
  0.6659609584610580  0.9162606037365321  0.4724745017231753   T   T   T
  0.5144771317451011  0.2503041533221882  0.5723050738285194   T   T   T
  0.0113388443945653  0.7270130987195136  0.5635443607124532   T   T   T
  0.0833333333333357  0.8333333333333357  0.3817991009012260   F   F   F
  0.7622403699932178  0.2419326748559153  0.5644373942308955   T   T   T
  0.5068469900590340  0.4964583462519273  0.5624922157411044   T   T   T
  0.6676409096265836  0.6640091857682642  0.4742537550717697   T   T   T
  0.9509302359111172  0.5362167055393973  0.6338383638232145   T   T   T
  0.9170276756862105  0.6638874245255829  0.4722208062896355   T   T   T
 -0.0176878486567889  0.2450715572252767  0.6310484437013798   T   T   T
  0.6660998876633459  0.1660469583180849  0.4753400050827096   T   T   T
  0.9176184281019152  0.4184613958909231  0.4737743471526492   T   T   T
  0.8333333333333357  0.3333333333333357  0.3817991009012260   F   F   F
  0.6693303715220024  0.4150765511872822  0.4748568001790316   T   T   T
  0.3333333333333357  0.5833333333333357  0.3817991009012260   F   F   F
  0.4184462402945881  0.6651083850423184  0.4735722138421624   T   T   T
 
  0.00000000E+00  0.00000000E+00  0.00000000E+00
  0.00000000E+00  0.00000000E+00  0.00000000E+00
  0.00000000E+00  0.00000000E+00  0.00000000E+00
  0.00000000E+00  0.00000000E+00  0.00000000E+00
  0.00000000E+00  0.00000000E+00  0.00000000E+00
  0.00000000E+00  0.00000000E+00  0.00000000E+00
  0.00000000E+00  0.00000000E+00  0.00000000E+00
  0.00000000E+00  0.00000000E+00  0.00000000E+00
  0.00000000E+00  0.00000000E+00  0.00000000E+00
  0.00000000E+00  0.00000000E+00  0.00000000E+00
  0.00000000E+00  0.00000000E+00  0.00000000E+00
  0.00000000E+00  0.00000000E+00  0.00000000E+00
  0.00000000E+00  0.00000000E+00  0.00000000E+00
  0.00000000E+00  0.00000000E+00  0.00000000E+00
  0.00000000E+00  0.00000000E+00  0.00000000E+00
  0.00000000E+00  0.00000000E+00  0.00000000E+00
  0.00000000E+00  0.00000000E+00  0.00000000E+00
  0.00000000E+00  0.00000000E+00  0.00000000E+00
  0.00000000E+00  0.00000000E+00  0.00000000E+00
  0.00000000E+00  0.00000000E+00  0.00000000E+00
  0.00000000E+00  0.00000000E+00  0.00000000E+00
  0.00000000E+00  0.00000000E+00  0.00000000E+00
  0.00000000E+00  0.00000000E+00  0.00000000E+00
  0.00000000E+00  0.00000000E+00  0.00000000E+00
  0.00000000E+00  0.00000000E+00  0.00000000E+00
  0.00000000E+00  0.00000000E+00  0.00000000E+00
  0.00000000E+00  0.00000000E+00  0.00000000E+00
  0.00000000E+00  0.00000000E+00  0.00000000E+00
  0.00000000E+00  0.00000000E+00  0.00000000E+00
  0.00000000E+00  0.00000000E+00  0.00000000E+00
  0.00000000E+00  0.00000000E+00  0.00000000E+00
  0.00000000E+00  0.00000000E+00  0.00000000E+00
  0.00000000E+00  0.00000000E+00  0.00000000E+00
  0.00000000E+00  0.00000000E+00  0.00000000E+00
  0.00000000E+00  0.00000000E+00  0.00000000E+00
  0.00000000E+00  0.00000000E+00  0.00000000E+00
  0.00000000E+00  0.00000000E+00  0.00000000E+00
  0.00000000E+00  0.00000000E+00  0.00000000E+00
  0.00000000E+00  0.00000000E+00  0.00000000E+00
  0.00000000E+00  0.00000000E+00  0.00000000E+00
  0.00000000E+00  0.00000000E+00  0.00000000E+00
  0.00000000E+00  0.00000000E+00  0.00000000E+00
  0.00000000E+00  0.00000000E+00  0.00000000E+00
  0.00000000E+00  0.00000000E+00  0.00000000E+00
  0.00000000E+00  0.00000000E+00  0.00000000E+00
  0.00000000E+00  0.00000000E+00  0.00000000E+00
  0.00000000E+00  0.00000000E+00  0.00000000E+00
  0.00000000E+00  0.00000000E+00  0.00000000E+00
  0.00000000E+00  0.00000000E+00  0.00000000E+00
  0.00000000E+00  0.00000000E+00  0.00000000E+00
  0.00000000E+00  0.00000000E+00  0.00000000E+00
  0.00000000E+00  0.00000000E+00  0.00000000E+00
  0.00000000E+00  0.00000000E+00  0.00000000E+00
  0.00000000E+00  0.00000000E+00  0.00000000E+00
  0.00000000E+00  0.00000000E+00  0.00000000E+00
  0.00000000E+00  0.00000000E+00  0.00000000E+00
