Au  O Pd                                
   1.00000000000000     
    11.0025815152626798    0.0000000000000000    0.0000000000000000
     5.5012907576313399    9.5285150994265617    0.0000000000000000
     0.0000000000000000    0.0000000000000000   26.1917850942952910
   Au   O    Pd
    24     8    24
Selective dynamics
Direct
  0.0833333333333357  0.0833333333333357  0.3817991009012260   F   F   F
  0.1673459116731871  0.6641195089573637  0.4712486022417285   T   T   T
  0.5833333333333357  0.8333333333333357  0.3817991009012260   F   F   F
  0.9167871034832770  0.1692315272752442  0.5157541530838162   T   T   T
  0.0307846553485281  0.9386862001634441  0.6091317824717252   T   T   T
  0.0833333333333357  0.3333333333333357  0.3817991009012260   F   F   F
  0.7744896296638571  0.9900007065361852  0.5636194675531129   T   T   T
  0.8333333333333357  0.0833333333333357  0.3817991009012260   F   F   F
  0.8333333333333357  0.5833333333333357  0.3817991009012260   F   F   F
  0.0833333333333357  0.5833333333333357  0.3817991009012260   F   F   F
  0.5086644720587081  0.7269185879194157  0.5652462537384249   T   T   T
  0.5833333333333357  0.5833333333333357  0.3817991009012260   F   F   F
  0.4116780618009045  0.9151611909612216  0.4757746394048263   T   T   T
  0.9193895909418486  0.9175723307770304  0.4744698393043734   T   T   T
  0.7739848599617590  0.4698372312884865  0.5586079231420147   T   T   T
  0.4148341292012148  0.4130339660422496  0.4747334889175768   T   T   T
  0.5833333333333357  0.3333333333333357  0.3817991009012260   F   F   F
  0.1591083704975120  0.1752781415072681  0.4802416638190228   T   T   T
  0.4822854552344170 -0.0137300097853053  0.5669508135986043   T   T   T
  0.4131572883507436  0.1684461436535368  0.4734283616007039   T   T   T
  0.7528031150075875  0.7439002140072106  0.5604788561097294   T   T   T
  0.2561775719571128  0.7445357803422580  0.5603307090738842   T   T   T
  0.3333333333333357  0.8333333333333357  0.3817991009012260   F   F   F
  0.2701656109521104  0.5116750044050339  0.5941556453035991   T   T   T
  0.1261158222922227  0.0586625759436018  0.6321326827084406   T   T   T
  0.0629437524760146  0.6158837250527239  0.6278371779180498   T   T   T
  0.1023359341595433  0.3254752646783267  0.6401594568050629   T   T   T
  0.3553289787736605  0.3112113986765124  0.6211771426472058   T   T   T
  0.7651609930740200  0.4031809825324764  0.6370742843111018   T   T   T
  0.7771624162781998  0.6905543085437377  0.6355876710074881   T   T   T
  0.8330282922387964  0.0660528651566473  0.6420941343420384   T   T   T
  0.5871278400298251  0.0606567220376337  0.6107508465817217   T   T   T
  0.1601674017459587  0.9244969587920232  0.4732312705235476   T   T   T
  0.2443014623780986  0.2397039455508237  0.5834456749010335   T   T   T
  0.1613479140687056  0.4222837579967798  0.4979264997641901   T   T   T
  0.5833333333333357  0.0833333333333357  0.3817991009012260   F   F   F
  0.3333333333333357  0.3333333333333357  0.3817991009012260   F   F   F
  0.8333333333333357  0.8333333333333357  0.3817991009012260   F   F   F
  0.2307105735350447  0.0032418421672814  0.5659946695985729   T   T   T
  0.3333333333333357  0.0833333333333357  0.3817991009012260   F   F   F
  0.6668874798319999  0.9166452821551836  0.4741004823898848   T   T   T
  0.5098337229875574  0.2384883876260322  0.5687858862164469   T   T   T
  0.0081018428736127  0.7291638195843309  0.5633460677210265   T   T   T
  0.0833333333333357  0.8333333333333357  0.3817991009012260   F   F   F
  0.7327305987812682  0.2522809094248490  0.6108043532855206   T   T   T
  0.5206978634673907  0.4729631640283240  0.5602277123639527   T   T   T
  0.6698738211181254  0.6600137595776853  0.4730918324770600   T   T   T
  0.9512821973965744  0.5198797683710360  0.6334007090321413   T   T   T
  0.9179400308004434  0.6617514538953577  0.4721185074346597   T   T   T
  0.9658318585848059  0.2568237752124125  0.6294342102752041   T   T   T
  0.6707183717127801  0.1668024205727651  0.4778967115403439   T   T   T
  0.9212193930537272  0.4137455016894543  0.4726144129024633   T   T   T
  0.8333333333333357  0.3333333333333357  0.3817991009012260   F   F   F
  0.6776152470469067  0.4044560628030344  0.4707237361050933   T   T   T
  0.3333333333333357  0.5833333333333357  0.3817991009012260   F   F   F
  0.4212033940729039  0.6589393751633937  0.4727429806759063   T   T   T
 
  0.00000000E+00  0.00000000E+00  0.00000000E+00
  0.00000000E+00  0.00000000E+00  0.00000000E+00
  0.00000000E+00  0.00000000E+00  0.00000000E+00
  0.00000000E+00  0.00000000E+00  0.00000000E+00
  0.00000000E+00  0.00000000E+00  0.00000000E+00
  0.00000000E+00  0.00000000E+00  0.00000000E+00
  0.00000000E+00  0.00000000E+00  0.00000000E+00
  0.00000000E+00  0.00000000E+00  0.00000000E+00
  0.00000000E+00  0.00000000E+00  0.00000000E+00
  0.00000000E+00  0.00000000E+00  0.00000000E+00
  0.00000000E+00  0.00000000E+00  0.00000000E+00
  0.00000000E+00  0.00000000E+00  0.00000000E+00
  0.00000000E+00  0.00000000E+00  0.00000000E+00
  0.00000000E+00  0.00000000E+00  0.00000000E+00
  0.00000000E+00  0.00000000E+00  0.00000000E+00
  0.00000000E+00  0.00000000E+00  0.00000000E+00
  0.00000000E+00  0.00000000E+00  0.00000000E+00
  0.00000000E+00  0.00000000E+00  0.00000000E+00
  0.00000000E+00  0.00000000E+00  0.00000000E+00
  0.00000000E+00  0.00000000E+00  0.00000000E+00
  0.00000000E+00  0.00000000E+00  0.00000000E+00
  0.00000000E+00  0.00000000E+00  0.00000000E+00
  0.00000000E+00  0.00000000E+00  0.00000000E+00
  0.00000000E+00  0.00000000E+00  0.00000000E+00
  0.00000000E+00  0.00000000E+00  0.00000000E+00
  0.00000000E+00  0.00000000E+00  0.00000000E+00
  0.00000000E+00  0.00000000E+00  0.00000000E+00
  0.00000000E+00  0.00000000E+00  0.00000000E+00
  0.00000000E+00  0.00000000E+00  0.00000000E+00
  0.00000000E+00  0.00000000E+00  0.00000000E+00
  0.00000000E+00  0.00000000E+00  0.00000000E+00
  0.00000000E+00  0.00000000E+00  0.00000000E+00
  0.00000000E+00  0.00000000E+00  0.00000000E+00
  0.00000000E+00  0.00000000E+00  0.00000000E+00
  0.00000000E+00  0.00000000E+00  0.00000000E+00
  0.00000000E+00  0.00000000E+00  0.00000000E+00
  0.00000000E+00  0.00000000E+00  0.00000000E+00
  0.00000000E+00  0.00000000E+00  0.00000000E+00
  0.00000000E+00  0.00000000E+00  0.00000000E+00
  0.00000000E+00  0.00000000E+00  0.00000000E+00
  0.00000000E+00  0.00000000E+00  0.00000000E+00
  0.00000000E+00  0.00000000E+00  0.00000000E+00
  0.00000000E+00  0.00000000E+00  0.00000000E+00
  0.00000000E+00  0.00000000E+00  0.00000000E+00
  0.00000000E+00  0.00000000E+00  0.00000000E+00
  0.00000000E+00  0.00000000E+00  0.00000000E+00
  0.00000000E+00  0.00000000E+00  0.00000000E+00
  0.00000000E+00  0.00000000E+00  0.00000000E+00
  0.00000000E+00  0.00000000E+00  0.00000000E+00
  0.00000000E+00  0.00000000E+00  0.00000000E+00
  0.00000000E+00  0.00000000E+00  0.00000000E+00
  0.00000000E+00  0.00000000E+00  0.00000000E+00
  0.00000000E+00  0.00000000E+00  0.00000000E+00
  0.00000000E+00  0.00000000E+00  0.00000000E+00
  0.00000000E+00  0.00000000E+00  0.00000000E+00
  0.00000000E+00  0.00000000E+00  0.00000000E+00
