Au Pd                                   
   1.00000000000000     
    11.0025815152626798    0.0000000000000000    0.0000000000000000
     5.5012907576313399    9.5285150994265617    0.0000000000000000
     0.0000000000000000    0.0000000000000000   24.4917850942952882
   Au   Pd
    24    24
Direct
  0.0854097077932275  0.0837433005200703  0.3998093334633314
  0.6672515697203473  0.6667110126554845  0.4977381684545957
  0.8360336786881208  0.5857716782065717  0.3943165581355386
  0.7509817774571061  0.2494962967822350  0.6012522467253771
  0.8322880165098909  0.3333157360171429  0.3970328901773398
  0.7521624913571785 -0.0030338810838267  0.6020706992920648
  0.6659595167905707  0.1665827036657949  0.5003105740910407
  0.8307653616412186  0.0827267720098563  0.3971777284922470
  0.4151937088336721  0.9201215977907453  0.4995882935930533
  0.5841758867058339  0.8375818023855414  0.3942483869612389
  0.5000653518522232  0.5007030423336061  0.6030918902712424
  0.4146733615886306  0.6653006880236128  0.4991226931301469
  0.5827442613753299  0.5819681145363905  0.3927760485855344
  0.4983296413778179  0.2498177497070117  0.6049719085662527
  0.3343375861943694  0.8333965114165621  0.3950225676666839
  0.2502013780220070  0.2496683484781907  0.6023861729190197
  0.2469967221153299  0.7499483940215589  0.6015867985088462
  0.7479780274396175  0.7497525676966642  0.6012318196164002
  0.2507928312278624 -0.0025350256746740  0.6022529695685677
  0.0885930568292959  0.3340161378293519  0.3992292385868724
  0.9178660651337678  0.4154377952598511  0.4992384112832183
 -0.0007755930828104  0.2485732154667349  0.6014682982620034
 -0.0003091976837091  0.5019750692148919  0.6019422475217859
  0.0844571011935332  0.8297180943782857  0.3985946688546241
  0.8334208274191772  0.8338543742615073  0.4044319259881731
  0.7490032668616026  0.4998935831931435  0.5958693225850223
  0.9171221592550801  0.1652483593465552  0.4986401518703277
 -0.0002336513328067 -0.0014487730011181  0.5944854866267074
  0.6659695948404969  0.4156653434126988  0.4991827300990755
  0.0852382492307217  0.5830812721931845  0.4051584628521069
  0.9173383784692289  0.6673480149487877  0.5002602011528283
  0.5000464094999110  0.7491451192673011  0.5959695097242320
  0.3359588708279110  0.3334699826784947  0.4067175498345723
  0.0003561049045079  0.7497322821339590  0.5954563955305805
  0.3355643581119716  0.0852642917322927  0.4041575919525049
  0.1665130588457388  0.1670469141285903  0.5009652082756341
  0.4153002771651276  0.4168344017961262  0.5022804886446524
  0.5808704215264440  0.3346041765148677  0.4040530134772238
  0.5001297299714297 -0.0011483515858797  0.5977465933005033
  0.4144201407973938  0.1696511896759978  0.5023374891806740
  0.5814414345854565  0.0854360378889062  0.4049782528712543
  0.6676033261290422  0.9167017321825131  0.5004142322177793
  0.1640463558428474  0.9174198313036953  0.4989273135767935
  0.2490148320952460  0.5009962402419331  0.5973141215082015
  0.1649789934743695  0.6671704659148137  0.5000121761758244
  0.3344535026797342  0.5802223458454139  0.4038278505221845
  0.1677746164188430  0.4176466754861288  0.5016001149655018
  0.9174964333000940  0.9154067688024325  0.4987532043406169
 
  0.00000000E+00  0.00000000E+00  0.00000000E+00
  0.00000000E+00  0.00000000E+00  0.00000000E+00
  0.00000000E+00  0.00000000E+00  0.00000000E+00
  0.00000000E+00  0.00000000E+00  0.00000000E+00
  0.00000000E+00  0.00000000E+00  0.00000000E+00
  0.00000000E+00  0.00000000E+00  0.00000000E+00
  0.00000000E+00  0.00000000E+00  0.00000000E+00
  0.00000000E+00  0.00000000E+00  0.00000000E+00
  0.00000000E+00  0.00000000E+00  0.00000000E+00
  0.00000000E+00  0.00000000E+00  0.00000000E+00
  0.00000000E+00  0.00000000E+00  0.00000000E+00
  0.00000000E+00  0.00000000E+00  0.00000000E+00
  0.00000000E+00  0.00000000E+00  0.00000000E+00
  0.00000000E+00  0.00000000E+00  0.00000000E+00
  0.00000000E+00  0.00000000E+00  0.00000000E+00
  0.00000000E+00  0.00000000E+00  0.00000000E+00
  0.00000000E+00  0.00000000E+00  0.00000000E+00
  0.00000000E+00  0.00000000E+00  0.00000000E+00
  0.00000000E+00  0.00000000E+00  0.00000000E+00
  0.00000000E+00  0.00000000E+00  0.00000000E+00
  0.00000000E+00  0.00000000E+00  0.00000000E+00
  0.00000000E+00  0.00000000E+00  0.00000000E+00
  0.00000000E+00  0.00000000E+00  0.00000000E+00
  0.00000000E+00  0.00000000E+00  0.00000000E+00
  0.00000000E+00  0.00000000E+00  0.00000000E+00
  0.00000000E+00  0.00000000E+00  0.00000000E+00
  0.00000000E+00  0.00000000E+00  0.00000000E+00
  0.00000000E+00  0.00000000E+00  0.00000000E+00
  0.00000000E+00  0.00000000E+00  0.00000000E+00
  0.00000000E+00  0.00000000E+00  0.00000000E+00
  0.00000000E+00  0.00000000E+00  0.00000000E+00
  0.00000000E+00  0.00000000E+00  0.00000000E+00
  0.00000000E+00  0.00000000E+00  0.00000000E+00
  0.00000000E+00  0.00000000E+00  0.00000000E+00
  0.00000000E+00  0.00000000E+00  0.00000000E+00
  0.00000000E+00  0.00000000E+00  0.00000000E+00
  0.00000000E+00  0.00000000E+00  0.00000000E+00
  0.00000000E+00  0.00000000E+00  0.00000000E+00
  0.00000000E+00  0.00000000E+00  0.00000000E+00
  0.00000000E+00  0.00000000E+00  0.00000000E+00
  0.00000000E+00  0.00000000E+00  0.00000000E+00
  0.00000000E+00  0.00000000E+00  0.00000000E+00
  0.00000000E+00  0.00000000E+00  0.00000000E+00
  0.00000000E+00  0.00000000E+00  0.00000000E+00
  0.00000000E+00  0.00000000E+00  0.00000000E+00
  0.00000000E+00  0.00000000E+00  0.00000000E+00
  0.00000000E+00  0.00000000E+00  0.00000000E+00
  0.00000000E+00  0.00000000E+00  0.00000000E+00
