Au  O Pd                                
   1.00000000000000     
    11.0025815152626798    0.0000000000000000    0.0000000000000000
     5.5012907576313399    9.5285150994265617    0.0000000000000000
     0.0000000000000000    0.0000000000000000   26.1917850942952910
   Au   O    Pd
    24     8    24
Selective dynamics
Direct
  0.0833333333333357  0.0833333333333357  0.3817991009012260   F   F   F
  0.1674988645103177  0.9208212684070670  0.4763561686293987   T   T   T
  0.0833333333333357  0.8333333333333357  0.3817991009012260   F   F   F
  0.6734150462862386  0.9180178265393926  0.5213232039708058   T   T   T
  0.8333333333333357  0.8333333333333357  0.3817991009012260   F   F   F
  0.0833333333333357  0.3333333333333357  0.3817991009012260   F   F   F
  0.9169399421557490  0.4194053042680251  0.4733050420182224   T   T   T
  0.0031673907194877  0.2428707008086150  0.5611349063084474   T   T   T
  0.6719334499642119  0.6744320466617890  0.4743290829507957   T   T   T
  0.0833333333333357  0.5833333333333357  0.3817991009012260   F   F   F
  0.7445957989606301  0.2297239491318704  0.5635070548720312   T   T   T
  0.9101656999457965  0.9197841524183048  0.4746023468905519   T   T   T
  0.9729421723965376  0.7668929401111230  0.5621082727531896   T   T   T
  0.6661585518816728  0.1632687095493764  0.4742953931994259   T   T   T
  0.4244888141189672  0.9196604992733940  0.4722991585243362   T   T   T
  0.5111344350440690  0.5055908889841838  0.5720505973171286   T   T   T
  0.4206488426101019  0.6666516542272959  0.4719407499787083   T   T   T
  0.3333333333333357  0.3333333333333357  0.3817991009012260   F   F   F
  0.4178738482817404  0.4171923773662110  0.4782697298338833   T   T   T
  0.2459970635473800  0.2536798409977737  0.5669891622067802   T   T   T
  0.4955440173398346  0.9823912171578759  0.6090515818031272   T   T   T
  0.4207607544393277  0.1636254359722040  0.4784343353868006   T   T   T
  0.5833333333333357  0.0833333333333357  0.3817991009012260   F   F   F
  0.2561062715365458  0.7488422597473019  0.5669291127013436   T   T   T
  0.7876579403716704  0.8489063937002449  0.6612768364685629   T   T   T
  0.2756763724941246  0.1001503798104151  0.6244322883651924   T   T   T
  0.0920521128548871  0.5866396907026792  0.6126382026638539   T   T   T
  0.8514867272030049  0.5545704117730549  0.6213016281946271   T   T   T
  0.5782155599934407  0.1096317843539003  0.6370324679376450   T   T   T
  0.4165012313209732  0.4095670515812093  0.6184489587152470   T   T   T
  0.8287144659759864  0.3245088167866345  0.6102041271233184   T   T   T
  0.9700164933788024 -0.0228244218073151  0.6391549784962227   T   T   T
  0.7325686728298350  0.7563383702986651  0.6116869072225489   T   T   T
  0.2589853665420845  0.4991618713507648  0.5683579792894374   T   T   T
  0.1657521406746779  0.6683272004556575  0.4749362694624693   T   T   T
  0.3333333333333357  0.5833333333333357  0.3817991009012260   F   F   F
  0.9149145788618093  0.1684974577954778  0.4711618975877324   T   T   T
  0.5833333333333357  0.3333333333333357  0.3817991009012260   F   F   F
  0.1647073211928573  0.4214325259954450  0.4790763723754718   T   T   T
  0.5026516005883437  0.2330447367648826  0.5744275986265260   T   T   T
  0.5833333333333357  0.5833333333333357  0.3817991009012260   F   F   F
  0.2507862667254283  0.9966269245206991  0.5672581660776669   T   T   T
  0.0038693227310041  0.9928873822638102  0.5678597867410961   T   T   T
  0.9153802692109224  0.6695398185560159  0.4728789569377105   T   T   T
  0.5833333333333357  0.8333333333333357  0.3817991009012260   F   F   F
  0.3333333333333357  0.0833333333333357  0.3817991009012260   F   F   F
  0.3333333333333357  0.8333333333333357  0.3817991009012260   F   F   F
  0.8333333333333357  0.0833333333333357  0.3817991009012260   F   F   F
  0.7475196910066796  0.5096502415478347  0.5672531484871728   T   T   T
  0.7837268735122240  0.0161661386121902  0.6344737612896264   T   T   T
  0.8333333333333357  0.3333333333333357  0.3817991009012260   F   F   F
  0.6683321842152938  0.4190788632202288  0.4755610241559642   T   T   T
  0.0017430745149762  0.5012780708869650  0.5698349528678003   T   T   T
  0.5063410365167483  0.7604519392221544  0.5625466767569685   T   T   T
  0.1690736010104041  0.1684127494071667  0.4743136527027554   T   T   T
  0.8333333333333357  0.5833333333333357  0.3817991009012260   F   F   F
 
  0.00000000E+00  0.00000000E+00  0.00000000E+00
  0.00000000E+00  0.00000000E+00  0.00000000E+00
  0.00000000E+00  0.00000000E+00  0.00000000E+00
  0.00000000E+00  0.00000000E+00  0.00000000E+00
  0.00000000E+00  0.00000000E+00  0.00000000E+00
  0.00000000E+00  0.00000000E+00  0.00000000E+00
  0.00000000E+00  0.00000000E+00  0.00000000E+00
  0.00000000E+00  0.00000000E+00  0.00000000E+00
  0.00000000E+00  0.00000000E+00  0.00000000E+00
  0.00000000E+00  0.00000000E+00  0.00000000E+00
  0.00000000E+00  0.00000000E+00  0.00000000E+00
  0.00000000E+00  0.00000000E+00  0.00000000E+00
  0.00000000E+00  0.00000000E+00  0.00000000E+00
  0.00000000E+00  0.00000000E+00  0.00000000E+00
  0.00000000E+00  0.00000000E+00  0.00000000E+00
  0.00000000E+00  0.00000000E+00  0.00000000E+00
  0.00000000E+00  0.00000000E+00  0.00000000E+00
  0.00000000E+00  0.00000000E+00  0.00000000E+00
  0.00000000E+00  0.00000000E+00  0.00000000E+00
  0.00000000E+00  0.00000000E+00  0.00000000E+00
  0.00000000E+00  0.00000000E+00  0.00000000E+00
  0.00000000E+00  0.00000000E+00  0.00000000E+00
  0.00000000E+00  0.00000000E+00  0.00000000E+00
  0.00000000E+00  0.00000000E+00  0.00000000E+00
  0.00000000E+00  0.00000000E+00  0.00000000E+00
  0.00000000E+00  0.00000000E+00  0.00000000E+00
  0.00000000E+00  0.00000000E+00  0.00000000E+00
  0.00000000E+00  0.00000000E+00  0.00000000E+00
  0.00000000E+00  0.00000000E+00  0.00000000E+00
  0.00000000E+00  0.00000000E+00  0.00000000E+00
  0.00000000E+00  0.00000000E+00  0.00000000E+00
  0.00000000E+00  0.00000000E+00  0.00000000E+00
  0.00000000E+00  0.00000000E+00  0.00000000E+00
  0.00000000E+00  0.00000000E+00  0.00000000E+00
  0.00000000E+00  0.00000000E+00  0.00000000E+00
  0.00000000E+00  0.00000000E+00  0.00000000E+00
  0.00000000E+00  0.00000000E+00  0.00000000E+00
  0.00000000E+00  0.00000000E+00  0.00000000E+00
  0.00000000E+00  0.00000000E+00  0.00000000E+00
  0.00000000E+00  0.00000000E+00  0.00000000E+00
  0.00000000E+00  0.00000000E+00  0.00000000E+00
  0.00000000E+00  0.00000000E+00  0.00000000E+00
  0.00000000E+00  0.00000000E+00  0.00000000E+00
  0.00000000E+00  0.00000000E+00  0.00000000E+00
  0.00000000E+00  0.00000000E+00  0.00000000E+00
  0.00000000E+00  0.00000000E+00  0.00000000E+00
  0.00000000E+00  0.00000000E+00  0.00000000E+00
  0.00000000E+00  0.00000000E+00  0.00000000E+00
  0.00000000E+00  0.00000000E+00  0.00000000E+00
  0.00000000E+00  0.00000000E+00  0.00000000E+00
  0.00000000E+00  0.00000000E+00  0.00000000E+00
  0.00000000E+00  0.00000000E+00  0.00000000E+00
  0.00000000E+00  0.00000000E+00  0.00000000E+00
  0.00000000E+00  0.00000000E+00  0.00000000E+00
  0.00000000E+00  0.00000000E+00  0.00000000E+00
  0.00000000E+00  0.00000000E+00  0.00000000E+00
