Au  O Pd                                
   1.00000000000000     
    11.0025815152626798    0.0000000000000000    0.0000000000000000
     5.5012907576313399    9.5285150994265617    0.0000000000000000
     0.0000000000000000    0.0000000000000000   26.1917850942952910
   Au   O    Pd
    24     8    24
Selective dynamics
Direct
  0.0833333333333357  0.0833333333333357  0.3817991009012260   F   F   F
  0.3333333333333357  0.8333333333333357  0.3817991009012260   F   F   F
  0.5833333333333357  0.0833333333333357  0.3817991009012260   F   F   F
  0.8333333333333357  0.8333333333333357  0.3817991009012260   F   F   F
  0.6547760160682137  0.6741723592164425  0.4773950274995300   T   T   T
  0.8333333333333357  0.5833333333333357  0.3817991009012260   F   F   F
  0.0833333333333357  0.3333333333333357  0.3817991009012260   F   F   F
  0.9123150897612595  0.4148222094761684  0.4804259730579456   T   T   T
  0.8333333333333357  0.3333333333333357  0.3817991009012260   F   F   F
  0.6693680106802100  0.1625936291779970  0.4756848258305215   T   T   T
  0.0833333333333357  0.5833333333333357  0.3817991009012260   F   F   F
  0.4237898904837853  0.9174121431689732  0.5140128964462417   T   T   T
  0.8333333333333357  0.0833333333333357  0.3817991009012260   F   F   F
  0.0833333333333357  0.8333333333333357  0.3817991009012260   F   F   F
  0.1717694817016084  0.6694997318043291  0.4803154237122939   T   T   T
  0.4195359958173969  0.6618510672748553  0.5128726489322232   T   T   T
  0.5833333333333357  0.5833333333333357  0.3817991009012260   F   F   F
  0.3333333333333357  0.0833333333333357  0.3817991009012260   F   F   F
  0.1724845915216734  0.1577183831720761  0.4901495806452050   T   T   T
  0.5833333333333357  0.3333333333333357  0.3817991009012260   F   F   F
  0.3333333333333357  0.5833333333333357  0.3817991009012260   F   F   F
  0.3333333333333357  0.3333333333333357  0.3817991009012260   F   F   F
  0.1717213960185132  0.4125103222210106  0.4820584338303743   T   T   T
  0.5833333333333357  0.8333333333333357  0.3817991009012260   F   F   F
  0.0390219791386307  0.0942492406259673  0.6200557935925506   T   T   T
  0.0642112724679235  0.3634654873774905  0.6172226454522161   T   T   T
  0.3278034012400405  0.1177117042343309  0.6350833475361850   T   T   T
  0.8394511093835563  0.8164333715553413  0.6115780500522340   T   T   T
  0.3259394287562410  0.8232394591730087  0.6440743163968434   T   T   T
  0.3198168239262068  0.5585756644504444  0.6282335593649516   T   T   T
  0.5962472589612112  0.1162148441445949  0.6171705075782159   T   T   T
  0.6204038533413057  0.5518598201548468  0.6299642257287651   T   T   T
  0.5106075334084589 -0.0038838357518307  0.6025795102294085   T   T   T
  0.9224096804237245  0.9156968830496419  0.4767488236483133   T   T   T
  0.4187158822451738  0.4176310681639079  0.4782258793372202   T   T   T
  0.7316703733391579  0.7606629874474596  0.5644034466174879   T   T   T
  0.4980255214751590  0.2532045970105776  0.5619041702078698   T   T   T
  0.2283203490741856  0.7549550839244996  0.5981800218046017   T   T   T
  0.1831991626680493  0.9092630245180955  0.4774420066394486   T   T   T
  0.0000597747807923  0.7496165569519838  0.5636571531814806   T   T   T
  0.5120585544598814  0.4724320179186774  0.5972668858977003   T   T   T
  0.2487060197000112  0.0015223637647465  0.6053659611405798   T   T   T
 -0.0140291648550947  0.5143127410953801  0.5663585547597129   T   T   T
  0.2522807383744927  0.5018660448976001  0.5683245641241953   T   T   T
  0.5073951028342872  0.7545183091046993  0.6072148958406213   T   T   T
  0.9159938724481331  0.6662366607513284  0.4757841481371517   T   T   T
  0.7603053570935544  0.0013675927284577  0.5717829513125720   T   T   T
 -0.0200732936565423  0.2654414612781836  0.5779655878745893   T   T   T
  0.6612172647260114  0.4194501722016047  0.4753197260907397   T   T   T
  0.7495031830163020  0.2520791925599105  0.5604030349936141   T   T   T
  0.0089536673102650 -0.0024931204429690  0.5626512396165433   T   T   T
  0.7317857162718530  0.5099978145549678  0.5664187533527494   T   T   T
  0.9234281944152735  0.1624999705874860  0.4748940352816821   T   T   T
  0.6664226499668687  0.9164166794858521  0.4755906494047847   T   T   T
  0.2516466877783602  0.2614077320535427  0.5800331755974680   T   T   T
  0.4175779447956214  0.1596933648013513  0.4778031463311811   T   T   T
 
  0.00000000E+00  0.00000000E+00  0.00000000E+00
  0.00000000E+00  0.00000000E+00  0.00000000E+00
  0.00000000E+00  0.00000000E+00  0.00000000E+00
  0.00000000E+00  0.00000000E+00  0.00000000E+00
  0.00000000E+00  0.00000000E+00  0.00000000E+00
  0.00000000E+00  0.00000000E+00  0.00000000E+00
  0.00000000E+00  0.00000000E+00  0.00000000E+00
  0.00000000E+00  0.00000000E+00  0.00000000E+00
  0.00000000E+00  0.00000000E+00  0.00000000E+00
  0.00000000E+00  0.00000000E+00  0.00000000E+00
  0.00000000E+00  0.00000000E+00  0.00000000E+00
  0.00000000E+00  0.00000000E+00  0.00000000E+00
  0.00000000E+00  0.00000000E+00  0.00000000E+00
  0.00000000E+00  0.00000000E+00  0.00000000E+00
  0.00000000E+00  0.00000000E+00  0.00000000E+00
  0.00000000E+00  0.00000000E+00  0.00000000E+00
  0.00000000E+00  0.00000000E+00  0.00000000E+00
  0.00000000E+00  0.00000000E+00  0.00000000E+00
  0.00000000E+00  0.00000000E+00  0.00000000E+00
  0.00000000E+00  0.00000000E+00  0.00000000E+00
  0.00000000E+00  0.00000000E+00  0.00000000E+00
  0.00000000E+00  0.00000000E+00  0.00000000E+00
  0.00000000E+00  0.00000000E+00  0.00000000E+00
  0.00000000E+00  0.00000000E+00  0.00000000E+00
  0.00000000E+00  0.00000000E+00  0.00000000E+00
  0.00000000E+00  0.00000000E+00  0.00000000E+00
  0.00000000E+00  0.00000000E+00  0.00000000E+00
  0.00000000E+00  0.00000000E+00  0.00000000E+00
  0.00000000E+00  0.00000000E+00  0.00000000E+00
  0.00000000E+00  0.00000000E+00  0.00000000E+00
  0.00000000E+00  0.00000000E+00  0.00000000E+00
  0.00000000E+00  0.00000000E+00  0.00000000E+00
  0.00000000E+00  0.00000000E+00  0.00000000E+00
  0.00000000E+00  0.00000000E+00  0.00000000E+00
  0.00000000E+00  0.00000000E+00  0.00000000E+00
  0.00000000E+00  0.00000000E+00  0.00000000E+00
  0.00000000E+00  0.00000000E+00  0.00000000E+00
  0.00000000E+00  0.00000000E+00  0.00000000E+00
  0.00000000E+00  0.00000000E+00  0.00000000E+00
  0.00000000E+00  0.00000000E+00  0.00000000E+00
  0.00000000E+00  0.00000000E+00  0.00000000E+00
  0.00000000E+00  0.00000000E+00  0.00000000E+00
  0.00000000E+00  0.00000000E+00  0.00000000E+00
  0.00000000E+00  0.00000000E+00  0.00000000E+00
  0.00000000E+00  0.00000000E+00  0.00000000E+00
  0.00000000E+00  0.00000000E+00  0.00000000E+00
  0.00000000E+00  0.00000000E+00  0.00000000E+00
  0.00000000E+00  0.00000000E+00  0.00000000E+00
  0.00000000E+00  0.00000000E+00  0.00000000E+00
  0.00000000E+00  0.00000000E+00  0.00000000E+00
  0.00000000E+00  0.00000000E+00  0.00000000E+00
  0.00000000E+00  0.00000000E+00  0.00000000E+00
  0.00000000E+00  0.00000000E+00  0.00000000E+00
  0.00000000E+00  0.00000000E+00  0.00000000E+00
  0.00000000E+00  0.00000000E+00  0.00000000E+00
  0.00000000E+00  0.00000000E+00  0.00000000E+00
