Au  O Pd                                
   1.00000000000000     
    11.0025815152626798    0.0000000000000000    0.0000000000000000
     5.5012907576313399    9.5285150994265617    0.0000000000000000
     0.0000000000000000    0.0000000000000000   26.1917850942952910
   Au   O    Pd
    24     8    24
Selective dynamics
Direct
  0.0833333333333357  0.0833333333333357  0.3817991009012260   F   F   F
  0.0833333333333357  0.8333333333333357  0.3817991009012260   F   F   F
  0.0833333333333357  0.3333333333333357  0.3817991009012260   F   F   F
 -0.0093666943424638  0.5164812130545933  0.5640418506239689   T   T   T
 -0.0003086966757501  0.2456983367548346  0.5613852370500525   T   T   T
  0.9081315444225402  0.6739532132185995  0.4756552084434878   T   T   T
  0.0124490882181188 -0.0165014813765122  0.5649871061186886   T   T   T
  0.0833333333333357  0.5833333333333357  0.3817991009012260   F   F   F
  0.3333333333333357  0.8333333333333357  0.3817991009012260   F   F   F
  0.2480883263331408 -0.0112733195861032  0.5668494764947628   T   T   T
  0.3333333333333357  0.5833333333333357  0.3817991009012260   F   F   F
  0.2536323440595583  0.4977408048131259  0.5660719862662607   T   T   T
  0.1630791778458889  0.6707713566832908  0.4809120814414493   T   T   T
  0.7687021446448898  0.7543759464041260  0.6049189884272744   T   T   T
  0.5002324495188694  0.0001116287333273  0.5592730585426144   T   T   T
  0.5833333333333357  0.5833333333333357  0.3817991009012260   F   F   F
  0.4134373881277096  0.6716150324517218  0.4823700335085928   T   T   T
  0.4153169592048275  0.9227940379331884  0.4720781970161507   T   T   T
  0.6611971879385509  0.1708200020972724  0.4739495233505195   T   T   T
  0.7520018666771682 -0.0173514394644207  0.5612700510167319   T   T   T
  0.8333333333333357  0.3333333333333357  0.3817991009012260   F   F   F
  0.6665086099650400  0.4193124508936400  0.4780640581329904   T   T   T
  0.7316605928628338  0.2465369526628593  0.5686903252226634   T   T   T
  0.2574229100606347  0.7375091045187724  0.5954252365090457   T   T   T
  0.3291672364467112  0.3540798214569879  0.6295908918433467   T   T   T
  0.3301654115525532  0.0679930847041860  0.6204750710796494   T   T   T
  0.8447602841253377  0.0570603956521946  0.6165996250235203   T   T   T
  0.8240918466704330  0.3536285655067212  0.6107073579858291   T   T   T
  0.5106006858657305  0.4431489556406826  0.6412016184688892   T   T   T
  0.6359903349954243  0.6773421687000732  0.6256631976811752   T   T   T
  0.5782236513412432  0.0708189086755182  0.6249053227954235   T   T   T
  0.0725498076585339  0.3463012933608282  0.6143613546906657   T   T   T
  0.3333333333333357  0.3333333333333357  0.3817991009012260   F   F   F
  0.1645981762409552  0.4183678661563337  0.4756631279508664   T   T   T
  0.2616745230987902  0.2468835012762111  0.5821795902797929   T   T   T
  0.0035587977021631  0.7474942183410822  0.5689805818694921   T   T   T
  0.9134990027047987  0.9212041277960049  0.4717723909703190   T   T   T
  0.7350122824162908  0.5254501152141720  0.5687275088025697   T   T   T
  0.1647193687453736  0.9211839618182969  0.4768910602469756   T   T   T
  0.8333333333333357  0.8333333333333357  0.3817991009012260   F   F   F
  0.5833333333333357  0.0833333333333357  0.3817991009012260   F   F   F
  0.4104833977303918  0.1764455737079110  0.4718086705380144   T   T   T
  0.3333333333333357  0.0833333333333357  0.3817991009012260   F   F   F
  0.4147856072732229  0.4190716002709670  0.4740424799015259   T   T   T
  0.5833333333333357  0.3333333333333357  0.3817991009012260   F   F   F
  0.1657132893298043  0.1739931429273984  0.4763832916139320   T   T   T
  0.8333333333333357  0.0833333333333357  0.3817991009012260   F   F   F
  0.9151681351362502  0.1682119437635935  0.4751120957042599   T   T   T
  0.4981733861914179  0.4979744546365664  0.5691507615564851   T   T   T
  0.6640386328208199  0.6724379905777764  0.4754485228151353   T   T   T
  0.6623588167260878  0.9222628831627985  0.4710986902238130   T   T   T
  0.5833333333333357  0.8333333333333357  0.3817991009012260   F   F   F
  0.4982503474669632  0.7525003368647064  0.5684112177889580   T   T   T
  0.9126817774553337  0.4214204917541995  0.4725919164270735   T   T   T
  0.5327357664557866  0.2638287291814149  0.6342904419792708   T   T   T
  0.8333333333333357  0.5833333333333357  0.3817991009012260   F   F   F
 
  0.00000000E+00  0.00000000E+00  0.00000000E+00
  0.00000000E+00  0.00000000E+00  0.00000000E+00
  0.00000000E+00  0.00000000E+00  0.00000000E+00
  0.00000000E+00  0.00000000E+00  0.00000000E+00
  0.00000000E+00  0.00000000E+00  0.00000000E+00
  0.00000000E+00  0.00000000E+00  0.00000000E+00
  0.00000000E+00  0.00000000E+00  0.00000000E+00
  0.00000000E+00  0.00000000E+00  0.00000000E+00
  0.00000000E+00  0.00000000E+00  0.00000000E+00
  0.00000000E+00  0.00000000E+00  0.00000000E+00
  0.00000000E+00  0.00000000E+00  0.00000000E+00
  0.00000000E+00  0.00000000E+00  0.00000000E+00
  0.00000000E+00  0.00000000E+00  0.00000000E+00
  0.00000000E+00  0.00000000E+00  0.00000000E+00
  0.00000000E+00  0.00000000E+00  0.00000000E+00
  0.00000000E+00  0.00000000E+00  0.00000000E+00
  0.00000000E+00  0.00000000E+00  0.00000000E+00
  0.00000000E+00  0.00000000E+00  0.00000000E+00
  0.00000000E+00  0.00000000E+00  0.00000000E+00
  0.00000000E+00  0.00000000E+00  0.00000000E+00
  0.00000000E+00  0.00000000E+00  0.00000000E+00
  0.00000000E+00  0.00000000E+00  0.00000000E+00
  0.00000000E+00  0.00000000E+00  0.00000000E+00
  0.00000000E+00  0.00000000E+00  0.00000000E+00
  0.00000000E+00  0.00000000E+00  0.00000000E+00
  0.00000000E+00  0.00000000E+00  0.00000000E+00
  0.00000000E+00  0.00000000E+00  0.00000000E+00
  0.00000000E+00  0.00000000E+00  0.00000000E+00
  0.00000000E+00  0.00000000E+00  0.00000000E+00
  0.00000000E+00  0.00000000E+00  0.00000000E+00
  0.00000000E+00  0.00000000E+00  0.00000000E+00
  0.00000000E+00  0.00000000E+00  0.00000000E+00
  0.00000000E+00  0.00000000E+00  0.00000000E+00
  0.00000000E+00  0.00000000E+00  0.00000000E+00
  0.00000000E+00  0.00000000E+00  0.00000000E+00
  0.00000000E+00  0.00000000E+00  0.00000000E+00
  0.00000000E+00  0.00000000E+00  0.00000000E+00
  0.00000000E+00  0.00000000E+00  0.00000000E+00
  0.00000000E+00  0.00000000E+00  0.00000000E+00
  0.00000000E+00  0.00000000E+00  0.00000000E+00
  0.00000000E+00  0.00000000E+00  0.00000000E+00
  0.00000000E+00  0.00000000E+00  0.00000000E+00
  0.00000000E+00  0.00000000E+00  0.00000000E+00
  0.00000000E+00  0.00000000E+00  0.00000000E+00
  0.00000000E+00  0.00000000E+00  0.00000000E+00
  0.00000000E+00  0.00000000E+00  0.00000000E+00
  0.00000000E+00  0.00000000E+00  0.00000000E+00
  0.00000000E+00  0.00000000E+00  0.00000000E+00
  0.00000000E+00  0.00000000E+00  0.00000000E+00
  0.00000000E+00  0.00000000E+00  0.00000000E+00
  0.00000000E+00  0.00000000E+00  0.00000000E+00
  0.00000000E+00  0.00000000E+00  0.00000000E+00
  0.00000000E+00  0.00000000E+00  0.00000000E+00
  0.00000000E+00  0.00000000E+00  0.00000000E+00
  0.00000000E+00  0.00000000E+00  0.00000000E+00
  0.00000000E+00  0.00000000E+00  0.00000000E+00
