Au  O Pd                                
   1.00000000000000     
    11.0025815152626798    0.0000000000000000    0.0000000000000000
     5.5012907576313399    9.5285150994265617    0.0000000000000000
     0.0000000000000000    0.0000000000000000   26.1917850942952910
   Au   O    Pd
    24     8    24
Selective dynamics
Direct
  0.0833333333333357  0.0833333333333357  0.3817991009012260   F   F   F
  0.1844077758759405  0.4828820794589244  0.6022387314415412   T   T   T
  0.4901091313083394  0.7463095375083051  0.5604730770573971   T   T   T
  0.9196645440024758  0.1624505930450602  0.4779830835093640   T   T   T
  0.0732032863084063  0.9440805653172930  0.6314544929415562   T   T   T
  0.7623668104606943  0.5014608063714515  0.5665329473711623   T   T   T
  0.9163133411023254  0.4184423143389579  0.4735999044120170   T   T   T
  0.0715464573114153  0.3131190369053237  0.5619998254190357   T   T   T
  0.8333333333333357  0.5833333333333357  0.3817991009012260   F   F   F
  0.7639535828388174  0.2595078639167649  0.5677987982048026   T   T   T
  0.8333333333333357  0.3333333333333357  0.3817991009012260   F   F   F
  0.2372152510258077  0.7513243890743916  0.5565551294486555   T   T   T
  0.9147864380184284  0.9155440541149871  0.4747257674856677   T   T   T
  0.5043449682999172  0.4881859066202462  0.5691769251268033   T   T   T
  0.3333333333333357  0.0833333333333357  0.3817991009012260   F   F   F
  0.5119341575152904  0.2312377566112969  0.5711231406780485   T   T   T
  0.2225917401131634  0.0158230948651198  0.5576132139014315   T   T   T
  0.4169471538948144  0.4174263091387792  0.4765744818869336   T   T   T
  0.3333333333333357  0.3333333333333357  0.3817991009012260   F   F   F
  0.1640977660323595  0.4222791431860645  0.4821825278969875   T   T   T
  0.5833333333333357  0.3333333333333357  0.3817991009012260   F   F   F
  0.4158500263652986  0.1658198364637141  0.4768739112625607   T   T   T
  0.7568766019531543  0.7640217592380126  0.5694472333852652   T   T   T
  0.5833333333333357  0.8333333333333357  0.3817991009012260   F   F   F
  0.2179864750033665  0.0044915366411222  0.6422553061150709   T   T   T
  0.1372563132117289  0.2951487921808812  0.6858183224227926   T   T   T
  0.3485382137191846  0.2845335690582171  0.6272475849707347   T   T   T
  0.3104596278807856  0.5753058901456181  0.6073726779751557   T   T   T
  0.9565514581824835  0.8473768973135246  0.6209777348645759   T   T   T
  0.8192827368108024  0.5938481260183626  0.6271083846959155   T   T   T
  0.8334024525304319  0.1156494382429563  0.6243592337857157   T   T   T
  0.5584618502492741  0.8512207581369498  0.6112853807299321   T   T   T
  0.5833333333333357  0.0833333333333357  0.3817991009012260   F   F   F
  0.1666485858121196  0.1675422505426621  0.4711926151925049   T   T   T
  0.3333333333333357  0.5833333333333357  0.3817991009012260   F   F   F
  0.5833333333333357  0.5833333333333357  0.3817991009012260   F   F   F
  0.4175973458072615  0.6645918089285652  0.4709424302359743   T   T   T
  0.1662148022172871  0.6640492278381789  0.4683193018467070   T   T   T
  0.1664405838005512  0.9134469272422182  0.4711324321503738   T   T   T
  0.2681208984888607  0.1567622078674947  0.6373047249484884   T   T   T
  0.4143240838594365  0.9166676331916160  0.4716222322729993   T   T   T
  0.0833333333333357  0.5833333333333357  0.3817991009012260   F   F   F
  0.6678402067599101  0.4177880216547050  0.4787818035447428   T   T   T
  0.6663519456370030  0.9168720180377123  0.4771721396984629   T   T   T
  0.8333333333333357  0.8333333333333357  0.3817991009012260   F   F   F
  0.0833333333333357  0.3333333333333357  0.3817991009012260   F   F   F
  0.6647889002535609  0.6693646453078140  0.4729040285801111   T   T   T
  0.0833333333333357  0.8333333333333357  0.3817991009012260   F   F   F
  0.3333333333333357  0.8333333333333357  0.3817991009012260   F   F   F
  0.9133933336091993  0.6678311745261183  0.4726807110066887   T   T   T
 -0.0067141348422221  0.4468075177130718  0.6514811934324511   T   T   T
  0.7833362490504735  0.9945690322653679  0.5825522453367613   T   T   T
  0.6672657305218886  0.1640104081149967  0.4804492907421304   T   T   T
  0.8333333333333357  0.0833333333333357  0.3817991009012260   F   F   F
  0.0112123023559405  0.7228895509580718  0.5583551054645450   T   T   T
  0.4807790899299654  0.0106985922470282  0.5638380565619697   T   T   T
 
  0.00000000E+00  0.00000000E+00  0.00000000E+00
  0.00000000E+00  0.00000000E+00  0.00000000E+00
  0.00000000E+00  0.00000000E+00  0.00000000E+00
  0.00000000E+00  0.00000000E+00  0.00000000E+00
  0.00000000E+00  0.00000000E+00  0.00000000E+00
  0.00000000E+00  0.00000000E+00  0.00000000E+00
  0.00000000E+00  0.00000000E+00  0.00000000E+00
  0.00000000E+00  0.00000000E+00  0.00000000E+00
  0.00000000E+00  0.00000000E+00  0.00000000E+00
  0.00000000E+00  0.00000000E+00  0.00000000E+00
  0.00000000E+00  0.00000000E+00  0.00000000E+00
  0.00000000E+00  0.00000000E+00  0.00000000E+00
  0.00000000E+00  0.00000000E+00  0.00000000E+00
  0.00000000E+00  0.00000000E+00  0.00000000E+00
  0.00000000E+00  0.00000000E+00  0.00000000E+00
  0.00000000E+00  0.00000000E+00  0.00000000E+00
  0.00000000E+00  0.00000000E+00  0.00000000E+00
  0.00000000E+00  0.00000000E+00  0.00000000E+00
  0.00000000E+00  0.00000000E+00  0.00000000E+00
  0.00000000E+00  0.00000000E+00  0.00000000E+00
  0.00000000E+00  0.00000000E+00  0.00000000E+00
  0.00000000E+00  0.00000000E+00  0.00000000E+00
  0.00000000E+00  0.00000000E+00  0.00000000E+00
  0.00000000E+00  0.00000000E+00  0.00000000E+00
  0.00000000E+00  0.00000000E+00  0.00000000E+00
  0.00000000E+00  0.00000000E+00  0.00000000E+00
  0.00000000E+00  0.00000000E+00  0.00000000E+00
  0.00000000E+00  0.00000000E+00  0.00000000E+00
  0.00000000E+00  0.00000000E+00  0.00000000E+00
  0.00000000E+00  0.00000000E+00  0.00000000E+00
  0.00000000E+00  0.00000000E+00  0.00000000E+00
  0.00000000E+00  0.00000000E+00  0.00000000E+00
  0.00000000E+00  0.00000000E+00  0.00000000E+00
  0.00000000E+00  0.00000000E+00  0.00000000E+00
  0.00000000E+00  0.00000000E+00  0.00000000E+00
  0.00000000E+00  0.00000000E+00  0.00000000E+00
  0.00000000E+00  0.00000000E+00  0.00000000E+00
  0.00000000E+00  0.00000000E+00  0.00000000E+00
  0.00000000E+00  0.00000000E+00  0.00000000E+00
  0.00000000E+00  0.00000000E+00  0.00000000E+00
  0.00000000E+00  0.00000000E+00  0.00000000E+00
  0.00000000E+00  0.00000000E+00  0.00000000E+00
  0.00000000E+00  0.00000000E+00  0.00000000E+00
  0.00000000E+00  0.00000000E+00  0.00000000E+00
  0.00000000E+00  0.00000000E+00  0.00000000E+00
  0.00000000E+00  0.00000000E+00  0.00000000E+00
  0.00000000E+00  0.00000000E+00  0.00000000E+00
  0.00000000E+00  0.00000000E+00  0.00000000E+00
  0.00000000E+00  0.00000000E+00  0.00000000E+00
  0.00000000E+00  0.00000000E+00  0.00000000E+00
  0.00000000E+00  0.00000000E+00  0.00000000E+00
  0.00000000E+00  0.00000000E+00  0.00000000E+00
  0.00000000E+00  0.00000000E+00  0.00000000E+00
  0.00000000E+00  0.00000000E+00  0.00000000E+00
  0.00000000E+00  0.00000000E+00  0.00000000E+00
  0.00000000E+00  0.00000000E+00  0.00000000E+00
