Au  O Pd                                
   1.00000000000000     
    11.0025815152626798    0.0000000000000000    0.0000000000000000
     5.5012907576313399    9.5285150994265617    0.0000000000000000
     0.0000000000000000    0.0000000000000000   26.1917850942952910
   Au   O    Pd
    24     8    24
Selective dynamics
Direct
  0.0833333333333357  0.0833333333333357  0.3817991009012260   F   F   F
  0.2344309238424233  0.5019088076082434  0.6205624186036350   T   T   T
  0.4978408841615082  0.7505790764543955  0.5618256402002942   T   T   T
  0.9205283244304110  0.1624578675966317  0.4758425817909978   T   T   T
  0.0283811922845655 -0.0457452940857558  0.6152986091555700   T   T   T
  0.7570004216453795  0.5033311902792422  0.5695957377766735   T   T   T
  0.9237256746210835  0.4196701472356931  0.4750887888953432   T   T   T
  0.0172767544885794  0.2658785573883241  0.5641812358770489   T   T   T
  0.8333333333333357  0.5833333333333357  0.3817991009012260   F   F   F
  0.7628796799998906  0.2557709917941009  0.5666304991909186   T   T   T
  0.8333333333333357  0.3333333333333357  0.3817991009012260   F   F   F
  0.2356268399201545  0.7601185770062596  0.5580001139519662   T   T   T
  0.9204958945572522  0.9111378340007273  0.4767231622070802   T   T   T
  0.5023466024977682  0.5027933298651541  0.5664375435947708   T   T   T
  0.3333333333333357  0.0833333333333357  0.3817991009012260   F   F   F
  0.5141722254764317  0.2471613548476533  0.5673810153886326   T   T   T
  0.2541086269827647  0.0084015953079501  0.5604620518387313   T   T   T
  0.4129105957657634  0.4176685198979097  0.4759277811200800   T   T   T
  0.3333333333333357  0.3333333333333357  0.3817991009012260   F   F   F
  0.1647853882917873  0.4174992092185777  0.5162823523989438   T   T   T
  0.5833333333333357  0.3333333333333357  0.3817991009012260   F   F   F
  0.4129357781692906  0.1706218490492080  0.4776480107204519   T   T   T
  0.7569917876477277  0.7546454517345811  0.5577101328400820   T   T   T
  0.5833333333333357  0.8333333333333357  0.3817991009012260   F   F   F
  0.1056774937743052  0.0815860786586828  0.6197586602278243   T   T   T
  0.1584021653950655  0.2950557424860688  0.6681039724385738   T   T   T
  0.4044305765901769  0.2960145062119114  0.6392643200374979   T   T   T
  0.3403625438344250  0.6120674793281659  0.6208292129722558   T   T   T
  0.9365226618385708  0.8335387600575205  0.6146759056396919   T   T   T
  0.8311284201732912  0.5972639735055311  0.6242233122430865   T   T   T
  0.8124201262993481  0.1060904550206016  0.6241903263669284   T   T   T
  0.5697614409571956  0.8555348056065979  0.6119959446353384   T   T   T
  0.5833333333333357  0.0833333333333357  0.3817991009012260   F   F   F
  0.1692304953765166  0.1719751166979089  0.4713657022825278   T   T   T
  0.3333333333333357  0.5833333333333357  0.3817991009012260   F   F   F
  0.5833333333333357  0.5833333333333357  0.3817991009012260   F   F   F
  0.4166381249666543  0.6660126025169240  0.4711282123494250   T   T   T
  0.1673232681574274  0.6586575588938158  0.4701648385897068   T   T   T
  0.1681796578886453  0.9126287148268882  0.4715012861630713   T   T   T
  0.2884662267744649  0.2178805686743839  0.6106851854750815   T   T   T
  0.4164291328873546  0.9187084236635198  0.4728488248479324   T   T   T
  0.0833333333333357  0.5833333333333357  0.3817991009012260   F   F   F
  0.6687375672386675  0.4177055771720918  0.4791306737459502   T   T   T
  0.6687027734719188  0.9169646991701139  0.4718741078683168   T   T   T
  0.8333333333333357  0.8333333333333357  0.3817991009012260   F   F   F
  0.0833333333333357  0.3333333333333357  0.3817991009012260   F   F   F
  0.6676486527033546  0.6655906651119340  0.4711502640804702   T   T   T
  0.0833333333333357  0.8333333333333357  0.3817991009012260   F   F   F
  0.3333333333333357  0.8333333333333357  0.3817991009012260   F   F   F
  0.9235424698148224  0.6615273468220367  0.4713969360424998   T   T   T
  0.0210886161839506  0.4557120694783708  0.6339377695331435   T   T   T
  0.7701998526036717 -0.0126466460460979  0.5745155519361841   T   T   T
  0.6678217290034488  0.1642103236673552  0.4773072094952436   T   T   T
  0.8333333333333357  0.0833333333333357  0.3817991009012260   F   F   F
  0.0326247455555448  0.6777615494189715  0.5639595458581039   T   T   T
  0.5019494752529922  0.0093549806784537  0.5633635271790115   T   T   T
 
  0.00000000E+00  0.00000000E+00  0.00000000E+00
  0.00000000E+00  0.00000000E+00  0.00000000E+00
  0.00000000E+00  0.00000000E+00  0.00000000E+00
  0.00000000E+00  0.00000000E+00  0.00000000E+00
  0.00000000E+00  0.00000000E+00  0.00000000E+00
  0.00000000E+00  0.00000000E+00  0.00000000E+00
  0.00000000E+00  0.00000000E+00  0.00000000E+00
  0.00000000E+00  0.00000000E+00  0.00000000E+00
  0.00000000E+00  0.00000000E+00  0.00000000E+00
  0.00000000E+00  0.00000000E+00  0.00000000E+00
  0.00000000E+00  0.00000000E+00  0.00000000E+00
  0.00000000E+00  0.00000000E+00  0.00000000E+00
  0.00000000E+00  0.00000000E+00  0.00000000E+00
  0.00000000E+00  0.00000000E+00  0.00000000E+00
  0.00000000E+00  0.00000000E+00  0.00000000E+00
  0.00000000E+00  0.00000000E+00  0.00000000E+00
  0.00000000E+00  0.00000000E+00  0.00000000E+00
  0.00000000E+00  0.00000000E+00  0.00000000E+00
  0.00000000E+00  0.00000000E+00  0.00000000E+00
  0.00000000E+00  0.00000000E+00  0.00000000E+00
  0.00000000E+00  0.00000000E+00  0.00000000E+00
  0.00000000E+00  0.00000000E+00  0.00000000E+00
  0.00000000E+00  0.00000000E+00  0.00000000E+00
  0.00000000E+00  0.00000000E+00  0.00000000E+00
  0.00000000E+00  0.00000000E+00  0.00000000E+00
  0.00000000E+00  0.00000000E+00  0.00000000E+00
  0.00000000E+00  0.00000000E+00  0.00000000E+00
  0.00000000E+00  0.00000000E+00  0.00000000E+00
  0.00000000E+00  0.00000000E+00  0.00000000E+00
  0.00000000E+00  0.00000000E+00  0.00000000E+00
  0.00000000E+00  0.00000000E+00  0.00000000E+00
  0.00000000E+00  0.00000000E+00  0.00000000E+00
  0.00000000E+00  0.00000000E+00  0.00000000E+00
  0.00000000E+00  0.00000000E+00  0.00000000E+00
  0.00000000E+00  0.00000000E+00  0.00000000E+00
  0.00000000E+00  0.00000000E+00  0.00000000E+00
  0.00000000E+00  0.00000000E+00  0.00000000E+00
  0.00000000E+00  0.00000000E+00  0.00000000E+00
  0.00000000E+00  0.00000000E+00  0.00000000E+00
  0.00000000E+00  0.00000000E+00  0.00000000E+00
  0.00000000E+00  0.00000000E+00  0.00000000E+00
  0.00000000E+00  0.00000000E+00  0.00000000E+00
  0.00000000E+00  0.00000000E+00  0.00000000E+00
  0.00000000E+00  0.00000000E+00  0.00000000E+00
  0.00000000E+00  0.00000000E+00  0.00000000E+00
  0.00000000E+00  0.00000000E+00  0.00000000E+00
  0.00000000E+00  0.00000000E+00  0.00000000E+00
  0.00000000E+00  0.00000000E+00  0.00000000E+00
  0.00000000E+00  0.00000000E+00  0.00000000E+00
  0.00000000E+00  0.00000000E+00  0.00000000E+00
  0.00000000E+00  0.00000000E+00  0.00000000E+00
  0.00000000E+00  0.00000000E+00  0.00000000E+00
  0.00000000E+00  0.00000000E+00  0.00000000E+00
  0.00000000E+00  0.00000000E+00  0.00000000E+00
  0.00000000E+00  0.00000000E+00  0.00000000E+00
  0.00000000E+00  0.00000000E+00  0.00000000E+00
