Au Pd                                   
   1.00000000000000     
    11.0025815152626798    0.0000000000000000    0.0000000000000000
     5.5012907576313399    9.5285150994265617    0.0000000000000000
     0.0000000000000000    0.0000000000000000   24.4917850942952882
   Au   Pd
    24    24
Direct
  0.0827868852662987  0.0822871572042954  0.3965873461344131
  0.8318668225363489  0.5871391919732019  0.3963399798216001
  0.6663702219018208  0.4153885803266821  0.4978299216231716
  0.8330936569950788  0.3307084498798482  0.3914343885577639
  0.7477912666826508  0.0023476748264177  0.6054166240594402
  0.4978811788534155  0.7528236295541101  0.5995120237640211
  0.5007868410975568  0.5011290159119679  0.6005624524427262
  0.5831177322919801  0.5848685268494492  0.3964956709425054
  0.4990000615358091  0.2494624160892496  0.6015164617366209
  0.5829790692297346  0.3281756124284899  0.3973726436305641
  0.1683037277047589  0.9165801638966062  0.4995203495040128
  0.3341320263356948  0.8353912966346376  0.3968014759104620
  0.2505079694632364  0.5008093848258481  0.6030273130429387
  0.3322179701319501  0.5826837647307137  0.4001249469066666
  0.1690303316348236  0.4150682488443076  0.4998922258531455
  0.7482046262958221  0.7506500621178669  0.6019273707789953
  0.0013387648520456  0.0016195433130132  0.6053705352131814
  0.0001510988691633  0.2497409952290240  0.5998551875448032
 -0.0002225589239547  0.4991379283749572  0.6029420405981906
  0.9167310657109886  0.4163292297926472  0.4974076463142808
  0.0864642452619742  0.3314080523661457  0.3937493272168008
  0.9156547972030785  0.9167164477586456  0.5020801961910180
  0.0820445016440732  0.5857227843846868  0.3991806591528386
  0.0012171428484856  0.7507752811522264  0.6038984235137203
  0.7498690568646029  0.2506549257324758  0.5952518132266239
  0.4183164850917384  0.9162425655390025  0.4996600884149364
  0.9169289887790800  0.1660440986837291  0.4991008045617826
  0.6660193274713914  0.6692319543383641  0.4994413125070986
  0.6648167696402401  0.1653847605775598  0.5008166530411365
  0.8326698223348221  0.0814081656905895  0.4047328932425925
  0.7496502248006830  0.5003442777304595  0.5950142766770329
  0.8304242127340279  0.8364673337412474  0.4061844796356091
  0.2507063789194231  0.0014992265845232  0.5952260452977806
  0.4175223317934559  0.6667786378069108  0.4987912867440816
  0.3348905172769386  0.3299189020966467  0.4042831405148115
  0.9157561223634476  0.6669393886215526  0.5009506780766935
  0.4177580485506739  0.4153619400068290  0.5006965845872545
  0.0807363364019580  0.8345114398847123  0.4038912439408976
  0.4973539278548628  0.0018528984892835  0.5969713160511101
  0.4193717177071617  0.1637589610302208  0.5009297381135154
  0.5826690028686862  0.0811405104325162  0.4062980299728604
  0.6664297230883031  0.9160008031567594  0.5028624631311847
  0.3351692684564050  0.0834542768620668  0.4041125917693073
  0.1683941328309375  0.6647674599396010  0.5004812036065143
  0.1685723443498478  0.1655569606331786  0.4981016820275048
  0.2503017659283490  0.2483212618336065  0.5958843953855769
  0.5838881924544775  0.8355940053101136  0.4054491338043710
  0.2503358560156513  0.7518018068130142  0.5960229352158413
 
  0.00000000E+00  0.00000000E+00  0.00000000E+00
  0.00000000E+00  0.00000000E+00  0.00000000E+00
  0.00000000E+00  0.00000000E+00  0.00000000E+00
  0.00000000E+00  0.00000000E+00  0.00000000E+00
  0.00000000E+00  0.00000000E+00  0.00000000E+00
  0.00000000E+00  0.00000000E+00  0.00000000E+00
  0.00000000E+00  0.00000000E+00  0.00000000E+00
  0.00000000E+00  0.00000000E+00  0.00000000E+00
  0.00000000E+00  0.00000000E+00  0.00000000E+00
  0.00000000E+00  0.00000000E+00  0.00000000E+00
  0.00000000E+00  0.00000000E+00  0.00000000E+00
  0.00000000E+00  0.00000000E+00  0.00000000E+00
  0.00000000E+00  0.00000000E+00  0.00000000E+00
  0.00000000E+00  0.00000000E+00  0.00000000E+00
  0.00000000E+00  0.00000000E+00  0.00000000E+00
  0.00000000E+00  0.00000000E+00  0.00000000E+00
  0.00000000E+00  0.00000000E+00  0.00000000E+00
  0.00000000E+00  0.00000000E+00  0.00000000E+00
  0.00000000E+00  0.00000000E+00  0.00000000E+00
  0.00000000E+00  0.00000000E+00  0.00000000E+00
  0.00000000E+00  0.00000000E+00  0.00000000E+00
  0.00000000E+00  0.00000000E+00  0.00000000E+00
  0.00000000E+00  0.00000000E+00  0.00000000E+00
  0.00000000E+00  0.00000000E+00  0.00000000E+00
  0.00000000E+00  0.00000000E+00  0.00000000E+00
  0.00000000E+00  0.00000000E+00  0.00000000E+00
  0.00000000E+00  0.00000000E+00  0.00000000E+00
  0.00000000E+00  0.00000000E+00  0.00000000E+00
  0.00000000E+00  0.00000000E+00  0.00000000E+00
  0.00000000E+00  0.00000000E+00  0.00000000E+00
  0.00000000E+00  0.00000000E+00  0.00000000E+00
  0.00000000E+00  0.00000000E+00  0.00000000E+00
  0.00000000E+00  0.00000000E+00  0.00000000E+00
  0.00000000E+00  0.00000000E+00  0.00000000E+00
  0.00000000E+00  0.00000000E+00  0.00000000E+00
  0.00000000E+00  0.00000000E+00  0.00000000E+00
  0.00000000E+00  0.00000000E+00  0.00000000E+00
  0.00000000E+00  0.00000000E+00  0.00000000E+00
  0.00000000E+00  0.00000000E+00  0.00000000E+00
  0.00000000E+00  0.00000000E+00  0.00000000E+00
  0.00000000E+00  0.00000000E+00  0.00000000E+00
  0.00000000E+00  0.00000000E+00  0.00000000E+00
  0.00000000E+00  0.00000000E+00  0.00000000E+00
  0.00000000E+00  0.00000000E+00  0.00000000E+00
  0.00000000E+00  0.00000000E+00  0.00000000E+00
  0.00000000E+00  0.00000000E+00  0.00000000E+00
  0.00000000E+00  0.00000000E+00  0.00000000E+00
  0.00000000E+00  0.00000000E+00  0.00000000E+00
