Au  O Pd                                
   1.00000000000000     
    11.0025815152626798    0.0000000000000000    0.0000000000000000
     5.5012907576313399    9.5285150994265617    0.0000000000000000
     0.0000000000000000    0.0000000000000000   26.1917850942952910
   Au   O    Pd
    24     8    24
Selective dynamics
Direct
  0.0833333333333357  0.0833333333333357  0.3817991009012260   F   F   F
  0.3333333333333357  0.8333333333333357  0.3817991009012260   F   F   F
  0.0833333333333357  0.8333333333333357  0.3817991009012260   F   F   F
  0.6668114023421857  0.9180314213134374  0.4785512003385606   T   T   T
  0.0048512396795323 -0.0060938211172866  0.5842456503540553   T   T   T
  0.8333333333333357  0.8333333333333357  0.3817991009012260   F   F   F
  0.0833333333333357  0.3333333333333357  0.3817991009012260   F   F   F
  0.9139494309023012  0.4209079469144586  0.4738449799625220   T   T   T
 -0.0129187096951954  0.2509843570310256  0.5618492852938503   T   T   T
  0.7679229554925975  0.4350635724113456  0.6125660957619606   T   T   T
  0.6658840060426661  0.6654771243042813  0.4718529782581883   T   T   T
  0.9085556506496755  0.9247253297357527  0.4895910821652175   T   T   T
  0.8333333333333357  0.0833333333333357  0.3817991009012260   F   F   F
  0.5024650640999628  0.7557295901706612  0.5710483747677049   T   T   T
  0.4945426745164238  0.4996942178517790  0.5644079727953377   T   T   T
  0.1702972061735129  0.1678658595289387  0.4755960098406554   T   T   T
  0.4164559267690753  0.6663700582735370  0.4731818752271871   T   T   T
  0.5054955612059162  0.2450039780356036  0.5587875742330574   T   T   T
  0.3333333333333357  0.3333333333333357  0.3817991009012260   F   F   F
  0.5833333333333357  0.3333333333333357  0.3817991009012260   F   F   F
  0.5833333333333357  0.0833333333333357  0.3817991009012260   F   F   F
  0.7523386252085835  0.7345937270124329  0.5633946541543040   T   T   T
  0.1606709791200855  0.6672728165531875  0.4766550463201100   T   T   T
  0.1620546708412277  0.9203054161776132  0.4779974139868620   T   T   T
  0.8812440052000152  0.8011996407834791  0.6371344967529777   T   T   T
  0.3190697714258600  0.3519689852415508  0.6122371437198008   T   T   T
  0.0911618872014520  0.3093773878241614  0.6149637436804756   T   T   T
  0.3018765747321527  0.8497756583383383  0.6152978605213970   T   T   T
  0.5727834972049739  0.0774098177147550  0.6249781694218370   T   T   T
  0.8328129567836914  0.5786180811753987  0.6270868865886808   T   T   T
  0.5634421983213294  0.5780562815869769  0.6257015347192884   T   T   T
  0.8022090256168577  0.1545921565024127  0.6286717898303446   T   T   T
  0.5833333333333357  0.5833333333333357  0.3817991009012260   F   F   F
  0.1648962405359652  0.4184170528946744  0.4751086949942385   T   T   T
  0.4136665576408070  0.4184245169461141  0.4740441846594612   T   T   T
  0.2587226537579977  0.2401397762786430  0.5682667594313265   T   T   T
  0.5092355269148413 -0.0026469358913966  0.5699968835866428   T   T   T
  0.4155936142373747  0.1662668831016700  0.4727163024724450   T   T   T
  0.3333333333333357  0.5833333333333357  0.3817991009012260   F   F   F
  0.2425592482422237  0.7520788225053214  0.5665704709811179   T   T   T
  0.3333333333333357  0.0833333333333357  0.3817991009012260   F   F   F
  0.2394876794439174  0.5103004483855725  0.5648232137186354   T   T   T
  0.5833333333333357  0.8333333333333357  0.3817991009012260   F   F   F
  0.4192387756416225  0.9176737703924595  0.4775986656312769   T   T   T
  0.6630954238259733  0.1685010017789423  0.4728813654894825   T   T   T
  0.7710211256620141 -0.0024937623922087  0.6306554317127362   T   T   T
  0.0040206398473909  0.5022943439321664  0.5840524538433772   T   T   T
  0.8333333333333357  0.3333333333333357  0.3817991009012260   F   F   F
  0.6663775713412049  0.4147272790954200  0.4733698068316041   T   T   T
  0.7452620921823710  0.2463427815795725  0.5589758120150627   T   T   T
  0.8333333333333357  0.5833333333333357  0.3817991009012260   F   F   F
  0.9176755366697914  0.6663478282450124  0.4754137271932829   T   T   T
  0.0833333333333357  0.5833333333333357  0.3817991009012260   F   F   F
  0.9134573466050372  0.1702389941232375  0.4730646331659070   T   T   T
  0.2458215567335505  0.0064015669305853  0.5663759909913775   T   T   T
 -0.0066079335732447  0.7471751518129658  0.5741704797693183   T   T   T
 
  0.00000000E+00  0.00000000E+00  0.00000000E+00
  0.00000000E+00  0.00000000E+00  0.00000000E+00
  0.00000000E+00  0.00000000E+00  0.00000000E+00
  0.00000000E+00  0.00000000E+00  0.00000000E+00
  0.00000000E+00  0.00000000E+00  0.00000000E+00
  0.00000000E+00  0.00000000E+00  0.00000000E+00
  0.00000000E+00  0.00000000E+00  0.00000000E+00
  0.00000000E+00  0.00000000E+00  0.00000000E+00
  0.00000000E+00  0.00000000E+00  0.00000000E+00
  0.00000000E+00  0.00000000E+00  0.00000000E+00
  0.00000000E+00  0.00000000E+00  0.00000000E+00
  0.00000000E+00  0.00000000E+00  0.00000000E+00
  0.00000000E+00  0.00000000E+00  0.00000000E+00
  0.00000000E+00  0.00000000E+00  0.00000000E+00
  0.00000000E+00  0.00000000E+00  0.00000000E+00
  0.00000000E+00  0.00000000E+00  0.00000000E+00
  0.00000000E+00  0.00000000E+00  0.00000000E+00
  0.00000000E+00  0.00000000E+00  0.00000000E+00
  0.00000000E+00  0.00000000E+00  0.00000000E+00
  0.00000000E+00  0.00000000E+00  0.00000000E+00
  0.00000000E+00  0.00000000E+00  0.00000000E+00
  0.00000000E+00  0.00000000E+00  0.00000000E+00
  0.00000000E+00  0.00000000E+00  0.00000000E+00
  0.00000000E+00  0.00000000E+00  0.00000000E+00
  0.00000000E+00  0.00000000E+00  0.00000000E+00
  0.00000000E+00  0.00000000E+00  0.00000000E+00
  0.00000000E+00  0.00000000E+00  0.00000000E+00
  0.00000000E+00  0.00000000E+00  0.00000000E+00
  0.00000000E+00  0.00000000E+00  0.00000000E+00
  0.00000000E+00  0.00000000E+00  0.00000000E+00
  0.00000000E+00  0.00000000E+00  0.00000000E+00
  0.00000000E+00  0.00000000E+00  0.00000000E+00
  0.00000000E+00  0.00000000E+00  0.00000000E+00
  0.00000000E+00  0.00000000E+00  0.00000000E+00
  0.00000000E+00  0.00000000E+00  0.00000000E+00
  0.00000000E+00  0.00000000E+00  0.00000000E+00
  0.00000000E+00  0.00000000E+00  0.00000000E+00
  0.00000000E+00  0.00000000E+00  0.00000000E+00
  0.00000000E+00  0.00000000E+00  0.00000000E+00
  0.00000000E+00  0.00000000E+00  0.00000000E+00
  0.00000000E+00  0.00000000E+00  0.00000000E+00
  0.00000000E+00  0.00000000E+00  0.00000000E+00
  0.00000000E+00  0.00000000E+00  0.00000000E+00
  0.00000000E+00  0.00000000E+00  0.00000000E+00
  0.00000000E+00  0.00000000E+00  0.00000000E+00
  0.00000000E+00  0.00000000E+00  0.00000000E+00
  0.00000000E+00  0.00000000E+00  0.00000000E+00
  0.00000000E+00  0.00000000E+00  0.00000000E+00
  0.00000000E+00  0.00000000E+00  0.00000000E+00
  0.00000000E+00  0.00000000E+00  0.00000000E+00
  0.00000000E+00  0.00000000E+00  0.00000000E+00
  0.00000000E+00  0.00000000E+00  0.00000000E+00
  0.00000000E+00  0.00000000E+00  0.00000000E+00
  0.00000000E+00  0.00000000E+00  0.00000000E+00
  0.00000000E+00  0.00000000E+00  0.00000000E+00
  0.00000000E+00  0.00000000E+00  0.00000000E+00
