Au Pd                                   
   1.00000000000000     
    11.0025815152626798    0.0000000000000000    0.0000000000000000
     5.5012907576313399    9.5285150994265617    0.0000000000000000
     0.0000000000000000    0.0000000000000000   24.4917850942952882
   Au   Pd
    24    24
Direct
  0.2482805001273936  0.7498334226711435  0.6042557619318806
  0.8347858917791456  0.8341561785684571  0.3977960721262432
  0.7499920596165199  0.4982991423098660  0.6028832305941541
  0.6690330464022550  0.6645936045660213  0.5001900307344141
  0.8359874911527997  0.3335308321084033  0.3984296060733652
  0.6652326180559562  0.1669342171856677  0.4976808689244806
  0.5010289807061131  0.7515453827175508  0.6034964398925319
  0.5824106207360215  0.8339232691308337  0.3942537836604476
  0.5020388569457596  0.4952288516167936  0.6019604005936832
  0.4157647381134510  0.6662386334781718  0.5007052950619147
  0.5827221622513638  0.5838380500527255  0.3954116279948861
  0.5804771484077655  0.3363616560050489  0.3965301968009947
  0.5815220362756901  0.0866761034666069  0.3924265440336319
  0.6670852173468333  0.9153041072381176  0.4990320433365538
  0.3289608682366909  0.8353311511700464  0.3990787761323551
  0.2512026264923202  0.4971589736784215  0.6016142717477047
  0.7498261636655611  0.7539464515138431  0.6061547854843007
  0.0013671477566537  0.5002211376670331  0.6011047469932513
  0.9186146862155858  0.1658123464132610  0.5000532305079809
 -0.0035012921643325 -0.0010364770181730  0.6034575555283169
  0.2516275811864928  0.0002205160543741  0.6008475025745541
  0.3281218623063902  0.0885096203203054  0.3972054480561693
  0.0014523551792312  0.2487238791556753  0.6030908258921720
  0.0843647811832597  0.5829840725675777  0.4004369518186246
  0.0819390015674426  0.3352772297319389  0.4059615486551160
  0.8336981573425292  0.5839161667078262  0.4039068785498184
  0.7491060598020253  0.2483991594470177  0.5954026560417727
  0.6669554110506671  0.4166438794389432  0.4985734654243736
  0.9200540348977992  0.4151097016577189  0.5017247326143904
  0.7483940151296371  0.0008318712758861  0.5955024304929328
  0.8351856986950545  0.0831201648164721  0.4018234762925804
  0.4149847131837271  0.9178450401693011  0.4985158111360883
  0.9194652626959343  0.6650965344111356  0.5002910768427175
  0.2535871461948739  0.2480301585558570  0.5941503110394365
  0.0828213865217635  0.8355798780833932  0.4054692360334891
  0.9198982334852457  0.9131365738072883  0.5000844052739285
  0.5017592317559902  0.2459768118459748  0.5946355570326467
  0.4157145644263308  0.4158697759889366  0.5006568000473666
 -0.0019747732200202  0.7508184844269403  0.5965496050828699
  0.4994669396931248  0.0018826562754032  0.5942807414432985
  0.4154673011817324  0.1662481603466204  0.4971246261339867
  0.1694751944470583  0.1647279782163215  0.5000649315091883
  0.1671472467079694  0.9150358533303601  0.5021017376220591
  0.3310338259840800  0.3368657101421903  0.4036558582505309
  0.1661866051916564  0.6662465301272386  0.5014766667686373
  0.3309789883098603  0.5848508806465579  0.4045583007257112
  0.1684396813791178  0.4159046745488895  0.5008380041456962
  0.0818179256014785  0.0842510033640160  0.4045551463467538
 
  0.00000000E+00  0.00000000E+00  0.00000000E+00
  0.00000000E+00  0.00000000E+00  0.00000000E+00
  0.00000000E+00  0.00000000E+00  0.00000000E+00
  0.00000000E+00  0.00000000E+00  0.00000000E+00
  0.00000000E+00  0.00000000E+00  0.00000000E+00
  0.00000000E+00  0.00000000E+00  0.00000000E+00
  0.00000000E+00  0.00000000E+00  0.00000000E+00
  0.00000000E+00  0.00000000E+00  0.00000000E+00
  0.00000000E+00  0.00000000E+00  0.00000000E+00
  0.00000000E+00  0.00000000E+00  0.00000000E+00
  0.00000000E+00  0.00000000E+00  0.00000000E+00
  0.00000000E+00  0.00000000E+00  0.00000000E+00
  0.00000000E+00  0.00000000E+00  0.00000000E+00
  0.00000000E+00  0.00000000E+00  0.00000000E+00
  0.00000000E+00  0.00000000E+00  0.00000000E+00
  0.00000000E+00  0.00000000E+00  0.00000000E+00
  0.00000000E+00  0.00000000E+00  0.00000000E+00
  0.00000000E+00  0.00000000E+00  0.00000000E+00
  0.00000000E+00  0.00000000E+00  0.00000000E+00
  0.00000000E+00  0.00000000E+00  0.00000000E+00
  0.00000000E+00  0.00000000E+00  0.00000000E+00
  0.00000000E+00  0.00000000E+00  0.00000000E+00
  0.00000000E+00  0.00000000E+00  0.00000000E+00
  0.00000000E+00  0.00000000E+00  0.00000000E+00
  0.00000000E+00  0.00000000E+00  0.00000000E+00
  0.00000000E+00  0.00000000E+00  0.00000000E+00
  0.00000000E+00  0.00000000E+00  0.00000000E+00
  0.00000000E+00  0.00000000E+00  0.00000000E+00
  0.00000000E+00  0.00000000E+00  0.00000000E+00
  0.00000000E+00  0.00000000E+00  0.00000000E+00
  0.00000000E+00  0.00000000E+00  0.00000000E+00
  0.00000000E+00  0.00000000E+00  0.00000000E+00
  0.00000000E+00  0.00000000E+00  0.00000000E+00
  0.00000000E+00  0.00000000E+00  0.00000000E+00
  0.00000000E+00  0.00000000E+00  0.00000000E+00
  0.00000000E+00  0.00000000E+00  0.00000000E+00
  0.00000000E+00  0.00000000E+00  0.00000000E+00
  0.00000000E+00  0.00000000E+00  0.00000000E+00
  0.00000000E+00  0.00000000E+00  0.00000000E+00
  0.00000000E+00  0.00000000E+00  0.00000000E+00
  0.00000000E+00  0.00000000E+00  0.00000000E+00
  0.00000000E+00  0.00000000E+00  0.00000000E+00
  0.00000000E+00  0.00000000E+00  0.00000000E+00
  0.00000000E+00  0.00000000E+00  0.00000000E+00
  0.00000000E+00  0.00000000E+00  0.00000000E+00
  0.00000000E+00  0.00000000E+00  0.00000000E+00
  0.00000000E+00  0.00000000E+00  0.00000000E+00
  0.00000000E+00  0.00000000E+00  0.00000000E+00
