Au Pd                                   
   1.00000000000000     
    11.0025815152626798    0.0000000000000000    0.0000000000000000
     5.5012907576313399    9.5285150994265617    0.0000000000000000
     0.0000000000000000    0.0000000000000000   24.4917850942952882
   Au   Pd
    24    24
Direct
  0.0855550377173705  0.0830112294330328  0.3979341640708222
  0.8308419290400271  0.8339044655109357  0.3976839936813068
  0.6688049939701616  0.6651898849874159  0.5001846977155311
  0.8316955695704173  0.5840027863720670  0.3955221127917870
  0.7474909620789598  0.2522533818081333  0.6005603214295588
  0.8329638218674278  0.3347080551831992  0.3978495394225866
  0.8321314322565865  0.0833397869727586  0.4002023178791652
  0.4156299188662151  0.9168440734297870  0.5007840587174429
  0.4156811079693206  0.6662500289174113  0.5003912700964409
  0.4172513536030416  0.4168060976084712  0.5007335049734314
  0.5820913747553734  0.3331064053422970  0.3972808437272397
  0.4997999824429016 -0.0001125477239018  0.6067876991021143
  0.4168614243082011  0.1683715405346023  0.5009990166379733
  0.6700476387315654  0.9169209976446828  0.5007271893360967
  0.2499723902876426  0.4967010238867561  0.6036725685006207
  0.3346446975941271  0.5832944640984611  0.3965283972235361
  0.2520082009489761  0.7499657046317796  0.6027770070839538
  0.3355731849310851  0.0834300581357539  0.3945306925953985
  0.0850412707519486  0.5799046271804689  0.4002384923990587
 -0.0004600939476383  0.0016421862212364  0.6007475627466856
  0.9174913274331447  0.4168747163564709  0.5004100015675355
  0.1651304176066226  0.1672272228536897  0.5003997338658954
  0.0850293038246372  0.8326639553143224  0.4005389680832280
 -0.0031690640805199  0.7491906898164030  0.6009358215353928
  0.6692527540319274  0.1670874352161282  0.5003740632177647
  0.7485744048801721 -0.0000304094109171  0.5976768753845791
  0.0001683495980810  0.2513493871900991  0.5979034825226088
  0.2486419715404689  0.2493178242877048  0.5981508151210028
  0.6690607432838374  0.4135546991139283  0.4997697691295520
  0.0846800985627223  0.3327705069759751  0.4027276312800252
  0.7492270349845476  0.5016638519417013  0.5977381423976095
  0.9157863850419851  0.1657680192180629  0.5005369647490551
  0.5012970613334786  0.7487913830006429  0.5991055303689786
  0.9195151386888009  0.6669212829058634  0.4998908114323173
  0.5005452677064364  0.5000334606084493  0.5979811884624320
  0.1660636137895687  0.4198739789993913  0.5014837733937154
 -0.0018103476129261  0.4989476088253215  0.5975949972598391
  0.5822753929824905  0.5851216889540818  0.4025378851524047
  0.5000309707806977  0.2493554807750161  0.5984894060418785
  0.9181867986196789  0.9167036819298442  0.5006331327710092
  0.5820034579293615  0.0835524970147038  0.4033939863765837
  0.1640920935949667  0.9169393438215164  0.5006996464429919
  0.3350422751664416  0.8329375592247589  0.4025743291652758
  0.2501449939732420  0.0008538162351527  0.5981423049791493
  0.1648041467513186  0.6676798950604536  0.5012574107261775
  0.3333354185778333  0.3324969752793021  0.4028423644087454
  0.5817045853555951  0.8337601666255426  0.4023844270734186
  0.7492692079116798  0.7490590316910424  0.5976910869600839
 
  0.00000000E+00  0.00000000E+00  0.00000000E+00
  0.00000000E+00  0.00000000E+00  0.00000000E+00
  0.00000000E+00  0.00000000E+00  0.00000000E+00
  0.00000000E+00  0.00000000E+00  0.00000000E+00
  0.00000000E+00  0.00000000E+00  0.00000000E+00
  0.00000000E+00  0.00000000E+00  0.00000000E+00
  0.00000000E+00  0.00000000E+00  0.00000000E+00
  0.00000000E+00  0.00000000E+00  0.00000000E+00
  0.00000000E+00  0.00000000E+00  0.00000000E+00
  0.00000000E+00  0.00000000E+00  0.00000000E+00
  0.00000000E+00  0.00000000E+00  0.00000000E+00
  0.00000000E+00  0.00000000E+00  0.00000000E+00
  0.00000000E+00  0.00000000E+00  0.00000000E+00
  0.00000000E+00  0.00000000E+00  0.00000000E+00
  0.00000000E+00  0.00000000E+00  0.00000000E+00
  0.00000000E+00  0.00000000E+00  0.00000000E+00
  0.00000000E+00  0.00000000E+00  0.00000000E+00
  0.00000000E+00  0.00000000E+00  0.00000000E+00
  0.00000000E+00  0.00000000E+00  0.00000000E+00
  0.00000000E+00  0.00000000E+00  0.00000000E+00
  0.00000000E+00  0.00000000E+00  0.00000000E+00
  0.00000000E+00  0.00000000E+00  0.00000000E+00
  0.00000000E+00  0.00000000E+00  0.00000000E+00
  0.00000000E+00  0.00000000E+00  0.00000000E+00
  0.00000000E+00  0.00000000E+00  0.00000000E+00
  0.00000000E+00  0.00000000E+00  0.00000000E+00
  0.00000000E+00  0.00000000E+00  0.00000000E+00
  0.00000000E+00  0.00000000E+00  0.00000000E+00
  0.00000000E+00  0.00000000E+00  0.00000000E+00
  0.00000000E+00  0.00000000E+00  0.00000000E+00
  0.00000000E+00  0.00000000E+00  0.00000000E+00
  0.00000000E+00  0.00000000E+00  0.00000000E+00
  0.00000000E+00  0.00000000E+00  0.00000000E+00
  0.00000000E+00  0.00000000E+00  0.00000000E+00
  0.00000000E+00  0.00000000E+00  0.00000000E+00
  0.00000000E+00  0.00000000E+00  0.00000000E+00
  0.00000000E+00  0.00000000E+00  0.00000000E+00
  0.00000000E+00  0.00000000E+00  0.00000000E+00
  0.00000000E+00  0.00000000E+00  0.00000000E+00
  0.00000000E+00  0.00000000E+00  0.00000000E+00
  0.00000000E+00  0.00000000E+00  0.00000000E+00
  0.00000000E+00  0.00000000E+00  0.00000000E+00
  0.00000000E+00  0.00000000E+00  0.00000000E+00
  0.00000000E+00  0.00000000E+00  0.00000000E+00
  0.00000000E+00  0.00000000E+00  0.00000000E+00
  0.00000000E+00  0.00000000E+00  0.00000000E+00
  0.00000000E+00  0.00000000E+00  0.00000000E+00
  0.00000000E+00  0.00000000E+00  0.00000000E+00
