Au  O Pd                                
   1.00000000000000     
    11.0025815152626798    0.0000000000000000    0.0000000000000000
     5.5012907576313399    9.5285150994265617    0.0000000000000000
     0.0000000000000000    0.0000000000000000   26.1917850942952910
   Au   O    Pd
    24     8    24
Selective dynamics
Direct
  0.0833333333333357  0.0833333333333357  0.3817991009012260   F   F   F
  0.3333333333333357  0.8333333333333357  0.3817991009012260   F   F   F
  0.0833333333333357  0.8333333333333357  0.3817991009012260   F   F   F
  0.9192691915318021  0.1685485806606562  0.4757970362317003   T   T   T
  0.6642120585569471  0.9182173452399468  0.4801755377586185   T   T   T
  0.8333333333333357  0.8333333333333357  0.3817991009012260   F   F   F
  0.0833333333333357  0.3333333333333357  0.3817991009012260   F   F   F
  0.7462075309941705  0.5004948012404097  0.5644979000986688   T   T   T
  0.8333333333333357  0.3333333333333357  0.3817991009012260   F   F   F
  0.7560197706333310 -0.0310482544610116  0.6034598777869228   T   T   T
  0.6673795383755919  0.1672575187378010  0.4757207024171918   T   T   T
  0.9176702722896788  0.9187554893742219  0.4762749063532533   T   T   T
 -0.0130264240596853  0.5122673072469356  0.5635056571206239   T   T   T
  0.5358684971495397  0.6860806574839590  0.6231274449533483   T   T   T
  0.4195015752412454  0.6722804240333325  0.4853083684358243   T   T   T
  0.5833333333333357  0.5833333333333357  0.3817991009012260   F   F   F
  0.5052345473815659  0.2517081533018782  0.5645929423153545   T   T   T
  0.2849542794540679 -0.0044273816728978  0.5605247264488135   T   T   T
  0.5833333333333357  0.3333333333333357  0.3817991009012260   F   F   F
  0.1688277288751896  0.4190610663453072  0.4731046351074901   T   T   T
  0.5833333333333357  0.0833333333333357  0.3817991009012260   F   F   F
  0.7154231948714331  0.7640326019418096  0.5699970453642724   T   T   T
  0.3333333333333357  0.5833333333333357  0.3817991009012260   F   F   F
  0.1689503355929403  0.9193462876071753  0.4841525334916733   T   T   T
  0.2474914580969442  0.4031928178507987  0.6198518313200938   T   T   T
  0.0673088867203421  0.8113797329537095  0.6191423361390895   T   T   T
  0.3252546092878045  0.0960690672673149  0.6214543263375125   T   T   T
  0.0342259502043244  0.1821863536133767  0.6321340629339686   T   T   T
  0.2504135475006217  0.8882136805758314  0.6231285677426137   T   T   T
  0.5617348797858270  0.1235087103398968  0.6311585224883609   T   T   T
  0.8325733501884731  0.1047994386081633  0.6222279196023390   T   T   T
  0.5226046819069022  0.8209687997539888  0.6772306126776915   T   T   T
  0.5833333333333357  0.8333333333333357  0.3817991009012260   F   F   F
  0.4184025414736559  0.4179072890509604  0.4762920777622216   T   T   T
  0.1710583649342008  0.1694766105761686  0.4759701102771635   T   T   T
  0.2482625484552228  0.2633777470539821  0.5742549781101066   T   T   T
  0.3333333333333357  0.0833333333333357  0.3817991009012260   F   F   F
  0.4975816504464116  0.5051748920264291  0.5686832550565719   T   T   T
  0.2427453445802475  0.7459430859066934  0.5758211483643226   T   T   T
  0.1693777308461177  0.6698855558877771  0.4764156541196464   T   T   T
  0.3333333333333357  0.3333333333333357  0.3817991009012260   F   F   F
  0.4213712188683121  0.9185243705536349  0.4698909297623256   T   T   T
 -0.0228451697499304  0.7637810241529914  0.5629982394376769   T   T   T
  0.8333333333333357  0.0833333333333357  0.3817991009012260   F   F   F
  0.9147711926497429  0.6704462423299857  0.4737538044899498   T   T   T
  0.0833333333333357  0.5833333333333357  0.3817991009012260   F   F   F
  0.0029006290484772  0.2525874389359988  0.5639641579799608   T   T   T
  0.6658711485433128  0.4179836183704175  0.4770512109987673   T   T   T
  0.7579172266157109  0.2461404824720048  0.5658084226048926   T   T   T
  0.8333333333333357  0.5833333333333357  0.3817991009012260   F   F   F
  0.6675334444466009  0.6679137056594701  0.4734274072090570   T   T   T
  0.9151877951393608  0.4201322591099234  0.4740086107077265   T   T   T
  0.0390727046004851  0.0072858650239851  0.6237313966627377   T   T   T
  0.2403753025045527  0.5137021138548488  0.5622440045079573   T   T   T
  0.4159263398121797  0.1681027959246473  0.4747468586706247   T   T   T
  0.5158866310662916 -0.0215626615814016  0.6476270384455788   T   T   T
 
  0.00000000E+00  0.00000000E+00  0.00000000E+00
  0.00000000E+00  0.00000000E+00  0.00000000E+00
  0.00000000E+00  0.00000000E+00  0.00000000E+00
  0.00000000E+00  0.00000000E+00  0.00000000E+00
  0.00000000E+00  0.00000000E+00  0.00000000E+00
  0.00000000E+00  0.00000000E+00  0.00000000E+00
  0.00000000E+00  0.00000000E+00  0.00000000E+00
  0.00000000E+00  0.00000000E+00  0.00000000E+00
  0.00000000E+00  0.00000000E+00  0.00000000E+00
  0.00000000E+00  0.00000000E+00  0.00000000E+00
  0.00000000E+00  0.00000000E+00  0.00000000E+00
  0.00000000E+00  0.00000000E+00  0.00000000E+00
  0.00000000E+00  0.00000000E+00  0.00000000E+00
  0.00000000E+00  0.00000000E+00  0.00000000E+00
  0.00000000E+00  0.00000000E+00  0.00000000E+00
  0.00000000E+00  0.00000000E+00  0.00000000E+00
  0.00000000E+00  0.00000000E+00  0.00000000E+00
  0.00000000E+00  0.00000000E+00  0.00000000E+00
  0.00000000E+00  0.00000000E+00  0.00000000E+00
  0.00000000E+00  0.00000000E+00  0.00000000E+00
  0.00000000E+00  0.00000000E+00  0.00000000E+00
  0.00000000E+00  0.00000000E+00  0.00000000E+00
  0.00000000E+00  0.00000000E+00  0.00000000E+00
  0.00000000E+00  0.00000000E+00  0.00000000E+00
  0.00000000E+00  0.00000000E+00  0.00000000E+00
  0.00000000E+00  0.00000000E+00  0.00000000E+00
  0.00000000E+00  0.00000000E+00  0.00000000E+00
  0.00000000E+00  0.00000000E+00  0.00000000E+00
  0.00000000E+00  0.00000000E+00  0.00000000E+00
  0.00000000E+00  0.00000000E+00  0.00000000E+00
  0.00000000E+00  0.00000000E+00  0.00000000E+00
  0.00000000E+00  0.00000000E+00  0.00000000E+00
  0.00000000E+00  0.00000000E+00  0.00000000E+00
  0.00000000E+00  0.00000000E+00  0.00000000E+00
  0.00000000E+00  0.00000000E+00  0.00000000E+00
  0.00000000E+00  0.00000000E+00  0.00000000E+00
  0.00000000E+00  0.00000000E+00  0.00000000E+00
  0.00000000E+00  0.00000000E+00  0.00000000E+00
  0.00000000E+00  0.00000000E+00  0.00000000E+00
  0.00000000E+00  0.00000000E+00  0.00000000E+00
  0.00000000E+00  0.00000000E+00  0.00000000E+00
  0.00000000E+00  0.00000000E+00  0.00000000E+00
  0.00000000E+00  0.00000000E+00  0.00000000E+00
  0.00000000E+00  0.00000000E+00  0.00000000E+00
  0.00000000E+00  0.00000000E+00  0.00000000E+00
  0.00000000E+00  0.00000000E+00  0.00000000E+00
  0.00000000E+00  0.00000000E+00  0.00000000E+00
  0.00000000E+00  0.00000000E+00  0.00000000E+00
  0.00000000E+00  0.00000000E+00  0.00000000E+00
  0.00000000E+00  0.00000000E+00  0.00000000E+00
  0.00000000E+00  0.00000000E+00  0.00000000E+00
  0.00000000E+00  0.00000000E+00  0.00000000E+00
  0.00000000E+00  0.00000000E+00  0.00000000E+00
  0.00000000E+00  0.00000000E+00  0.00000000E+00
  0.00000000E+00  0.00000000E+00  0.00000000E+00
  0.00000000E+00  0.00000000E+00  0.00000000E+00
