Au  O Pd                                
   1.00000000000000     
    11.0025815152626798    0.0000000000000000    0.0000000000000000
     5.5012907576313399    9.5285150994265617    0.0000000000000000
     0.0000000000000000    0.0000000000000000   26.1917850942952910
   Au   O    Pd
    24     8    24
Selective dynamics
Direct
  0.5833333333333357  0.5833333333333357  0.3817991009012260   F   F   F
  0.4182099256970649  0.9195860561871603  0.4816805038052174   T   T   T
  0.9216950918372004  0.1623436510922860  0.4700432395955216   T   T   T
  0.9383411808054883  0.0219785311857588  0.6154097594392399   T   T   T
  0.5051253515149293  0.4905504568250853  0.5644358542591809   T   T   T
  0.0833333333333357  0.3333333333333357  0.3817991009012260   F   F   F
  0.9191684500430720  0.4121281851039992  0.4738801916836871   T   T   T
  0.9752620653668017  0.2587893045442424  0.6068590871520706   T   T   T
  0.5833333333333357  0.8333333333333357  0.3817991009012260   F   F   F
  0.0833333333333357  0.5833333333333357  0.3817991009012260   F   F   F
  0.8333333333333357  0.8333333333333357  0.3817991009012260   F   F   F
  0.7630341517027363  0.2392645432293619  0.5592669178125568   T   T   T
  0.0055793110918415  0.4740890727348423  0.5643471022331134   T   T   T
  0.9193541549448254  0.9135199737203219  0.4772090417037262   T   T   T
  0.2597973928099142  0.7319002399471415  0.6282883559010254   T   T   T
  0.1688229442691543  0.9154150010806618  0.4782938591696205   T   T   T
  0.6700482185769763  0.6635240715616599  0.4740057545060774   T   T   T
  0.1702781352175804  0.1664659471695753  0.4910588063791269   T   T   T
  0.2353046697123956  0.9731678461363860  0.5748570064516719   T   T   T
  0.3333333333333357  0.8333333333333357  0.3817991009012260   F   F   F
  0.4173003284939873  0.6625723075554015  0.4751159409154574   T   T   T
  0.1761616308248944  0.4093693926310470  0.4748812608669949   T   T   T
  0.2152129856116310  0.2543355141187032  0.6095501614517171   T   T   T
  0.1698385539566190  0.6630845603165014  0.4782678178465729   T   T   T
  0.0833797493575157  0.5746273017173291  0.6112046713805013   T   T   T
  0.3549941206871313  0.3327822063501278  0.6119618540734153   T   T   T
  0.0807192489175520  0.0749769827265388  0.6451187442893820   T   T   T
  0.7526252962525559  0.6246805186504970  0.6164104551371986   T   T   T
  0.0547197087222869  0.8154075337467294  0.6367882001918215   T   T   T
  0.3571828731023692  0.0526602188554603  0.6297126412160582   T   T   T
  0.4658703140270341  0.6380239661000540  0.6260188488963965   T   T   T
  0.5995153864624844  0.0740009040684033  0.6091417578872410   T   T   T
  0.3333333333333357  0.5833333333333357  0.3817991009012260   F   F   F
  0.2555957371995439  0.5000371730392664  0.5671729372787300   T   T   T
  0.9925189767954664  0.7513451462687810  0.5708493853322529   T   T   T
  0.7460229596196047  0.7468668592519409  0.5630222074627800   T   T   T
  0.5833333333333357  0.0833333333333357  0.3817991009012260   F   F   F
  0.4207056052166266  0.1626090447199143  0.4709765484981134   T   T   T
  0.5022714360599951 -0.0169948957039108  0.5766865767086774   T   T   T
  0.0833333333333357  0.8333333333333357  0.3817991009012260   F   F   F
  0.9201497843471689  0.6647706285607258  0.4771328917402766   T   T   T
  0.5833333333333357  0.3333333333333357  0.3817991009012260   F   F   F
  0.4221057127574795  0.4100252517602520  0.4739334224765163   T   T   T
  0.5074222777434838  0.2409443230220630  0.5612233705730484   T   T   T
  0.0833333333333357  0.0833333333333357  0.3817991009012260   F   F   F
  0.8333333333333357  0.5833333333333357  0.3817991009012260   F   F   F
  0.6657363624102484  0.9159221459060706  0.4752653211153078   T   T   T
  0.4951149529482765  0.7437031872667206  0.5660800910811378   T   T   T
  0.8333333333333357  0.0833333333333357  0.3817991009012260   F   F   F
  0.6678278837958770  0.1623974716064903  0.4709249327553980   T   T   T
  0.7571458914514733 -0.0104444502353662  0.5605351232719771   T   T   T
  0.7544275684696753  0.4890964048096635  0.5676103526537910   T   T   T
  0.8333333333333357  0.3333333333333357  0.3817991009012260   F   F   F
  0.6683232549012710  0.4113712967855681  0.4730298354613338   T   T   T
  0.3333333333333357  0.0833333333333357  0.3817991009012260   F   F   F
  0.3333333333333357  0.3333333333333357  0.3817991009012260   F   F   F
 
  0.00000000E+00  0.00000000E+00  0.00000000E+00
  0.00000000E+00  0.00000000E+00  0.00000000E+00
  0.00000000E+00  0.00000000E+00  0.00000000E+00
  0.00000000E+00  0.00000000E+00  0.00000000E+00
  0.00000000E+00  0.00000000E+00  0.00000000E+00
  0.00000000E+00  0.00000000E+00  0.00000000E+00
  0.00000000E+00  0.00000000E+00  0.00000000E+00
  0.00000000E+00  0.00000000E+00  0.00000000E+00
  0.00000000E+00  0.00000000E+00  0.00000000E+00
  0.00000000E+00  0.00000000E+00  0.00000000E+00
  0.00000000E+00  0.00000000E+00  0.00000000E+00
  0.00000000E+00  0.00000000E+00  0.00000000E+00
  0.00000000E+00  0.00000000E+00  0.00000000E+00
  0.00000000E+00  0.00000000E+00  0.00000000E+00
  0.00000000E+00  0.00000000E+00  0.00000000E+00
  0.00000000E+00  0.00000000E+00  0.00000000E+00
  0.00000000E+00  0.00000000E+00  0.00000000E+00
  0.00000000E+00  0.00000000E+00  0.00000000E+00
  0.00000000E+00  0.00000000E+00  0.00000000E+00
  0.00000000E+00  0.00000000E+00  0.00000000E+00
  0.00000000E+00  0.00000000E+00  0.00000000E+00
  0.00000000E+00  0.00000000E+00  0.00000000E+00
  0.00000000E+00  0.00000000E+00  0.00000000E+00
  0.00000000E+00  0.00000000E+00  0.00000000E+00
  0.00000000E+00  0.00000000E+00  0.00000000E+00
  0.00000000E+00  0.00000000E+00  0.00000000E+00
  0.00000000E+00  0.00000000E+00  0.00000000E+00
  0.00000000E+00  0.00000000E+00  0.00000000E+00
  0.00000000E+00  0.00000000E+00  0.00000000E+00
  0.00000000E+00  0.00000000E+00  0.00000000E+00
  0.00000000E+00  0.00000000E+00  0.00000000E+00
  0.00000000E+00  0.00000000E+00  0.00000000E+00
  0.00000000E+00  0.00000000E+00  0.00000000E+00
  0.00000000E+00  0.00000000E+00  0.00000000E+00
  0.00000000E+00  0.00000000E+00  0.00000000E+00
  0.00000000E+00  0.00000000E+00  0.00000000E+00
  0.00000000E+00  0.00000000E+00  0.00000000E+00
  0.00000000E+00  0.00000000E+00  0.00000000E+00
  0.00000000E+00  0.00000000E+00  0.00000000E+00
  0.00000000E+00  0.00000000E+00  0.00000000E+00
  0.00000000E+00  0.00000000E+00  0.00000000E+00
  0.00000000E+00  0.00000000E+00  0.00000000E+00
  0.00000000E+00  0.00000000E+00  0.00000000E+00
  0.00000000E+00  0.00000000E+00  0.00000000E+00
  0.00000000E+00  0.00000000E+00  0.00000000E+00
  0.00000000E+00  0.00000000E+00  0.00000000E+00
  0.00000000E+00  0.00000000E+00  0.00000000E+00
  0.00000000E+00  0.00000000E+00  0.00000000E+00
  0.00000000E+00  0.00000000E+00  0.00000000E+00
  0.00000000E+00  0.00000000E+00  0.00000000E+00
  0.00000000E+00  0.00000000E+00  0.00000000E+00
  0.00000000E+00  0.00000000E+00  0.00000000E+00
  0.00000000E+00  0.00000000E+00  0.00000000E+00
  0.00000000E+00  0.00000000E+00  0.00000000E+00
  0.00000000E+00  0.00000000E+00  0.00000000E+00
  0.00000000E+00  0.00000000E+00  0.00000000E+00
