Au  O Pd                                
   1.00000000000000     
    11.0025815152626798    0.0000000000000000    0.0000000000000000
     5.5012907576313399    9.5285150994265617    0.0000000000000000
     0.0000000000000000    0.0000000000000000   26.1917850942952910
   Au   O    Pd
    24     8    24
Selective dynamics
Direct
  0.5833333333333357  0.5833333333333357  0.3817991009012260   F   F   F
  0.4192660814655122  0.9204287409197022  0.4759798155601761   T   T   T
  0.9181759931385552  0.1676480865317207  0.4738826383633806   T   T   T
 -0.0104642661692336  0.0048122218616908  0.5747375347493141   T   T   T
  0.5007307094155479  0.5037525754554741  0.5648135164333911   T   T   T
  0.0833333333333357  0.3333333333333357  0.3817991009012260   F   F   F
  0.9195721951895961  0.4172111676301731  0.4752348745657766   T   T   T
 -0.0225292170697693  0.2706206683412564  0.6031029345187973   T   T   T
  0.5833333333333357  0.8333333333333357  0.3817991009012260   F   F   F
  0.0833333333333357  0.5833333333333357  0.3817991009012260   F   F   F
  0.8333333333333357  0.8333333333333357  0.3817991009012260   F   F   F
  0.7523585282951847  0.2584719530179072  0.5651789625771946   T   T   T
  0.0063113060281767  0.4852122345104702  0.5659742409136548   T   T   T
  0.9179054481454083  0.9169285299439509  0.4753962549055433   T   T   T
  0.2743028618072020  0.7400103911824238  0.6259746348375261   T   T   T
  0.1675501143426779  0.9177195079007184  0.4765656553824962   T   T   T
  0.6722390874632346  0.6672532735196779  0.4747437451039248   T   T   T
  0.1711306149734556  0.1681618573909557  0.4771013652864922   T   T   T
  0.2523478050864010 -0.0035331283502932  0.5680464843334080   T   T   T
  0.3333333333333357  0.8333333333333357  0.3817991009012260   F   F   F
  0.4186028237561306  0.6660373822155132  0.4748314464017974   T   T   T
  0.1757993776027720  0.4141886247499075  0.4758615009023073   T   T   T
  0.2209374162102880  0.2622515377168050  0.6102702677110338   T   T   T
  0.1699354089444007  0.6666002569482511  0.4777599159077474   T   T   T
  0.0869574114988956  0.5845903848602418  0.6131239037872098   T   T   T
  0.3564317869905060  0.3425487858755099  0.6133718764707189   T   T   T
  0.0937673133942229  0.0737105553245678  0.6293171383307035   T   T   T
  0.7620209011868920  0.6294038343673387  0.6180245794932593   T   T   T
  0.0690297486279399  0.8321222103818403  0.6278915852066548   T   T   T
  0.3924269225603346  0.0687622735752471  0.6263739800436651   T   T   T
  0.4798004513156339  0.6505301860929322  0.6269177647699877   T   T   T
  0.6627103316707640  0.1418156150866120  0.6137364460745012   T   T   T
  0.3333333333333357  0.5833333333333357  0.3817991009012260   F   F   F
  0.2560586373852299  0.5064967640603364  0.5663977428820055   T   T   T
 -0.0086256499043326  0.7567334265167228  0.5726369801303656   T   T   T
  0.7435859366457085  0.7599378077863841  0.5659615554085432   T   T   T
  0.5833333333333357  0.0833333333333357  0.3817991009012260   F   F   F
  0.4208021454546264  0.1682699950722573  0.4714350845927512   T   T   T
  0.4988143235194510  0.0058155375340647  0.5642205989851096   T   T   T
  0.0833333333333357  0.8333333333333357  0.3817991009012260   F   F   F
  0.9203527974448972  0.6685924169825193  0.4781115586341054   T   T   T
  0.5833333333333357  0.3333333333333357  0.3817991009012260   F   F   F
  0.4216106491078692  0.4159006461246781  0.4736023877325465   T   T   T
  0.5058652370434316  0.2481070277984699  0.5614008176100101   T   T   T
  0.0833333333333357  0.0833333333333357  0.3817991009012260   F   F   F
  0.8333333333333357  0.5833333333333357  0.3817991009012260   F   F   F
  0.6672715022189416  0.9197299700172591  0.4760479180379180   T   T   T
  0.4979969991225237  0.7547355423493896  0.5649136520383767   T   T   T
  0.8333333333333357  0.0833333333333357  0.3817991009012260   F   F   F
  0.6668988849203051  0.1682118096840267  0.4707637221106890   T   T   T
  0.7468099468956991  0.0002507171255423  0.5614061899615318   T   T   T
  0.7536549199097039  0.5018042064106585  0.5680502889461332   T   T   T
  0.8333333333333357  0.3333333333333357  0.3817991009012260   F   F   F
  0.6699555382412803  0.4156345691014846  0.4735363389387274   T   T   T
  0.3333333333333357  0.0833333333333357  0.3817991009012260   F   F   F
  0.3333333333333357  0.3333333333333357  0.3817991009012260   F   F   F
 
  0.00000000E+00  0.00000000E+00  0.00000000E+00
  0.00000000E+00  0.00000000E+00  0.00000000E+00
  0.00000000E+00  0.00000000E+00  0.00000000E+00
  0.00000000E+00  0.00000000E+00  0.00000000E+00
  0.00000000E+00  0.00000000E+00  0.00000000E+00
  0.00000000E+00  0.00000000E+00  0.00000000E+00
  0.00000000E+00  0.00000000E+00  0.00000000E+00
  0.00000000E+00  0.00000000E+00  0.00000000E+00
  0.00000000E+00  0.00000000E+00  0.00000000E+00
  0.00000000E+00  0.00000000E+00  0.00000000E+00
  0.00000000E+00  0.00000000E+00  0.00000000E+00
  0.00000000E+00  0.00000000E+00  0.00000000E+00
  0.00000000E+00  0.00000000E+00  0.00000000E+00
  0.00000000E+00  0.00000000E+00  0.00000000E+00
  0.00000000E+00  0.00000000E+00  0.00000000E+00
  0.00000000E+00  0.00000000E+00  0.00000000E+00
  0.00000000E+00  0.00000000E+00  0.00000000E+00
  0.00000000E+00  0.00000000E+00  0.00000000E+00
  0.00000000E+00  0.00000000E+00  0.00000000E+00
  0.00000000E+00  0.00000000E+00  0.00000000E+00
  0.00000000E+00  0.00000000E+00  0.00000000E+00
  0.00000000E+00  0.00000000E+00  0.00000000E+00
  0.00000000E+00  0.00000000E+00  0.00000000E+00
  0.00000000E+00  0.00000000E+00  0.00000000E+00
  0.00000000E+00  0.00000000E+00  0.00000000E+00
  0.00000000E+00  0.00000000E+00  0.00000000E+00
  0.00000000E+00  0.00000000E+00  0.00000000E+00
  0.00000000E+00  0.00000000E+00  0.00000000E+00
  0.00000000E+00  0.00000000E+00  0.00000000E+00
  0.00000000E+00  0.00000000E+00  0.00000000E+00
  0.00000000E+00  0.00000000E+00  0.00000000E+00
  0.00000000E+00  0.00000000E+00  0.00000000E+00
  0.00000000E+00  0.00000000E+00  0.00000000E+00
  0.00000000E+00  0.00000000E+00  0.00000000E+00
  0.00000000E+00  0.00000000E+00  0.00000000E+00
  0.00000000E+00  0.00000000E+00  0.00000000E+00
  0.00000000E+00  0.00000000E+00  0.00000000E+00
  0.00000000E+00  0.00000000E+00  0.00000000E+00
  0.00000000E+00  0.00000000E+00  0.00000000E+00
  0.00000000E+00  0.00000000E+00  0.00000000E+00
  0.00000000E+00  0.00000000E+00  0.00000000E+00
  0.00000000E+00  0.00000000E+00  0.00000000E+00
  0.00000000E+00  0.00000000E+00  0.00000000E+00
  0.00000000E+00  0.00000000E+00  0.00000000E+00
  0.00000000E+00  0.00000000E+00  0.00000000E+00
  0.00000000E+00  0.00000000E+00  0.00000000E+00
  0.00000000E+00  0.00000000E+00  0.00000000E+00
  0.00000000E+00  0.00000000E+00  0.00000000E+00
  0.00000000E+00  0.00000000E+00  0.00000000E+00
  0.00000000E+00  0.00000000E+00  0.00000000E+00
  0.00000000E+00  0.00000000E+00  0.00000000E+00
  0.00000000E+00  0.00000000E+00  0.00000000E+00
  0.00000000E+00  0.00000000E+00  0.00000000E+00
  0.00000000E+00  0.00000000E+00  0.00000000E+00
  0.00000000E+00  0.00000000E+00  0.00000000E+00
  0.00000000E+00  0.00000000E+00  0.00000000E+00
