Au Pd                                   
   1.00000000000000     
    11.0025815152626798    0.0000000000000000    0.0000000000000000
     5.5012907576313399    9.5285150994265617    0.0000000000000000
     0.0000000000000000    0.0000000000000000   24.4917850942952882
   Au   Pd
    24    24
Selective dynamics
Direct
  0.2489331328234042 -0.0014510041172069  0.6116828699217871   T   T   T
  0.9180679787227637  0.1657079842207782  0.5076365846900116   T   T   T
  0.8333333333333357  0.8333333333333357  0.4083001692812189   F   F   F
  0.7503041625850829  0.5008183674570788  0.6136394420820490   T   T   T
  0.9197315441541716  0.4146449934933044  0.5068953882432571   T   T   T
  0.0005778696861319  0.2482067158815202  0.6130868161529330   T   T   T
  0.6669603874817821  0.6643768236106499  0.5095918062944653   T   T   T
  0.8333333333333357  0.5833333333333357  0.4083001692812189   F   F   F
 -0.0019526453451956  0.5045562951201986  0.6097542323816738   T   T   T
  0.7514423560227587  0.2464719861784565  0.6131260612159100   T   T   T
  0.5017263670440715  0.2462623953012480  0.6153212216162388   T   T   T
  0.4150749232324631  0.4200681407895800  0.5087218984268858   T   T   T
  0.6673396251465606  0.1637840418954586  0.5098330778960466   T   T   T
  0.8333333333333357  0.0833333333333357  0.4083001692812189   F   F   F
  0.2505001718342871  0.2494352984158641  0.6096709584087849   T   T   T
  0.4991178597894738  0.7521242467334236  0.6127473514925220   T   T   T
  0.4156582586159281  0.9158571553423008  0.5074975520983772   T   T   T
  0.2473029045014699  0.5043622239176364  0.6097139510877643   T   T   T
  0.5833333333333357  0.8333333333333357  0.4083001692812189   F   F   F
  0.1667626182648242  0.9135122160237841  0.5052106302296505   T   T   T
  0.4991539066158253  0.5015980747893869  0.6106676702829918   T   T   T
  0.4161044583858213  0.1653957551995290  0.5074218459184456   T   T   T
  0.5833333333333357  0.3333333333333357  0.4083001692812189   F   F   F
  0.3333333333333357  0.3333333333333357  0.4083001692812189   F   F   F
  0.9173209590715745  0.9131989889163799  0.5066543470445319   T   T   T
  0.5019100749211917 -0.0013683039334565  0.6048663468395554   T   T   T
 -0.0012736264146382  0.7528356277375479  0.6019344008761999   T   T   T
  0.1671642581456646  0.1666332823914203  0.5070232741604521   T   T   T
  0.6692733682395186  0.9138666548820976  0.5077842908332872   T   T   T
  0.3333333333333357  0.5833333333333357  0.4083001692812189   F   F   F
  0.1655973920002857  0.6648307245652048  0.5049170596696390   T   T   T
  0.3333333333333357  0.8333333333333357  0.4083001692812189   F   F   F
  0.0833333333333357  0.8333333333333357  0.4083001692812189   F   F   F
  0.1653144993281147  0.4180658585074837  0.5073468941164271   T   T   T
  0.9193291111178592  0.6659157226421651  0.5072182207012648   T   T   T
  0.2483646932351837  0.7508518118862977  0.6019999164583515   T   T   T
  0.0833333333333357  0.3333333333333357  0.4083001692812189   F   F   F
 -0.0002861676072149 -0.0022434049996591  0.6036592332830448   T   T   T
  0.5833333333333357  0.0833333333333357  0.4083001692812189   F   F   F
  0.0833333333333357  0.0833333333333357  0.4083001692812189   F   F   F
  0.5833333333333357  0.5833333333333357  0.4083001692812189   F   F   F
  0.4174950167909069  0.6647350935826951  0.5062017931402621   T   T   T
  0.6673894615183873  0.4161896116301484  0.5081409413736007   T   T   T
  0.8333333333333357  0.3333333333333357  0.4083001692812189   F   F   F
  0.7519311053632154 -0.0034039705522926  0.6046866912199812   T   T   T
  0.3333333333333357  0.0833333333333357  0.4083001692812189   F   F   F
  0.0833333333333357  0.5833333333333357  0.4083001692812189   F   F   F
  0.7500667531795567  0.7523238526720886  0.6043459502070555   T   T   T
 
  0.00000000E+00  0.00000000E+00  0.00000000E+00
  0.00000000E+00  0.00000000E+00  0.00000000E+00
  0.00000000E+00  0.00000000E+00  0.00000000E+00
  0.00000000E+00  0.00000000E+00  0.00000000E+00
  0.00000000E+00  0.00000000E+00  0.00000000E+00
  0.00000000E+00  0.00000000E+00  0.00000000E+00
  0.00000000E+00  0.00000000E+00  0.00000000E+00
  0.00000000E+00  0.00000000E+00  0.00000000E+00
  0.00000000E+00  0.00000000E+00  0.00000000E+00
  0.00000000E+00  0.00000000E+00  0.00000000E+00
  0.00000000E+00  0.00000000E+00  0.00000000E+00
  0.00000000E+00  0.00000000E+00  0.00000000E+00
  0.00000000E+00  0.00000000E+00  0.00000000E+00
  0.00000000E+00  0.00000000E+00  0.00000000E+00
  0.00000000E+00  0.00000000E+00  0.00000000E+00
  0.00000000E+00  0.00000000E+00  0.00000000E+00
  0.00000000E+00  0.00000000E+00  0.00000000E+00
  0.00000000E+00  0.00000000E+00  0.00000000E+00
  0.00000000E+00  0.00000000E+00  0.00000000E+00
  0.00000000E+00  0.00000000E+00  0.00000000E+00
  0.00000000E+00  0.00000000E+00  0.00000000E+00
  0.00000000E+00  0.00000000E+00  0.00000000E+00
  0.00000000E+00  0.00000000E+00  0.00000000E+00
  0.00000000E+00  0.00000000E+00  0.00000000E+00
  0.00000000E+00  0.00000000E+00  0.00000000E+00
  0.00000000E+00  0.00000000E+00  0.00000000E+00
  0.00000000E+00  0.00000000E+00  0.00000000E+00
  0.00000000E+00  0.00000000E+00  0.00000000E+00
  0.00000000E+00  0.00000000E+00  0.00000000E+00
  0.00000000E+00  0.00000000E+00  0.00000000E+00
  0.00000000E+00  0.00000000E+00  0.00000000E+00
  0.00000000E+00  0.00000000E+00  0.00000000E+00
  0.00000000E+00  0.00000000E+00  0.00000000E+00
  0.00000000E+00  0.00000000E+00  0.00000000E+00
  0.00000000E+00  0.00000000E+00  0.00000000E+00
  0.00000000E+00  0.00000000E+00  0.00000000E+00
  0.00000000E+00  0.00000000E+00  0.00000000E+00
  0.00000000E+00  0.00000000E+00  0.00000000E+00
  0.00000000E+00  0.00000000E+00  0.00000000E+00
  0.00000000E+00  0.00000000E+00  0.00000000E+00
  0.00000000E+00  0.00000000E+00  0.00000000E+00
  0.00000000E+00  0.00000000E+00  0.00000000E+00
  0.00000000E+00  0.00000000E+00  0.00000000E+00
  0.00000000E+00  0.00000000E+00  0.00000000E+00
  0.00000000E+00  0.00000000E+00  0.00000000E+00
  0.00000000E+00  0.00000000E+00  0.00000000E+00
  0.00000000E+00  0.00000000E+00  0.00000000E+00
  0.00000000E+00  0.00000000E+00  0.00000000E+00
