Au  O Pd                                
   1.00000000000000     
    11.0025815152626798    0.0000000000000000    0.0000000000000000
     5.5012907576313399    9.5285150994265617    0.0000000000000000
     0.0000000000000000    0.0000000000000000   26.1917850942952910
   Au   O    Pd
    24     8    24
Selective dynamics
Direct
  0.4904941101494015  0.2523097895574117  0.5630205741047403   T   T   T
  0.1689375383101946  0.6647517686765778  0.4758602067972583   T   T   T
  0.5016875898961131  0.5087930092459141  0.5638049915562544   T   T   T
  0.6629750803944363  0.9114231754845438  0.4783710246615854   T   T   T
 -0.0002155468238699  0.9843345123683297  0.5619120356224812   T   T   T
  0.5833333333333357  0.3333333333333357  0.3817991009012260   F   F   F
  0.5833333333333357  0.5833333333333357  0.3817991009012260   F   F   F
  0.5048222956276387  0.0227618934725954  0.6013170274801628   T   T   T
  0.6759428583744422  0.6610438264966069  0.5107630012808766   T   T   T
  0.8333333333333357  0.5833333333333357  0.3817991009012260   F   F   F
  0.5833333333333357  0.0833333333333357  0.3817991009012260   F   F   F
 -0.0064739637853690  0.5244290570482891  0.5616698644378767   T   T   T
  0.9144714431363639  0.6668839413037145  0.4720606868898044   T   T   T
  0.9176533212652622  0.9147462404023380  0.4716779804091449   T   T   T
  0.7489850766135965  0.2368358531378111  0.5641217496071487   T   T   T
  0.2303578729579141  0.7248940697000935  0.5686062115938573   T   T   T
  0.3333333333333357  0.0833333333333357  0.3817991009012260   F   F   F
  0.6745967127922932  0.4216911750395348  0.4749117565173009   T   T   T
  0.5833333333333357  0.8333333333333357  0.3817991009012260   F   F   F
  0.4150955499370954  0.4193205574578455  0.4724038579386567   T   T   T
  0.4181884162720781  0.9138495050546434  0.4873795339048415   T   T   T
  0.6691624683586064  0.1644673515448345  0.4745347824303582   T   T   T
  0.2324688726454837  0.2731335159014248  0.5656999158072613   T   T   T
  0.0833333333333357  0.8333333333333357  0.3817991009012260   F   F   F
  0.8698397393878210  0.5465264239882139  0.6313936002887818   T   T   T
  0.2892645079870252  0.1101762989297604  0.6209758295445780   T   T   T
  0.5740529247101890  0.8382141928622626  0.6423949888135875   T   T   T
  0.8702439719250435  0.2876798961669330  0.6150806375166774   T   T   T
  0.0876602484037626  0.5736466557392006  0.6563635942219456   T   T   T
  0.8787145365769020  0.9592276073036008  0.6228422068438877   T   T   T
  0.3031171871358922  0.8344959439623737  0.6186814675008006   T   T   T
  0.4689562282577137  0.3919802055229373  0.6252660747555707   T   T   T
  0.1698213371654418  0.1655236363701464  0.4736943956619946   T   T   T
  0.2327847338272403  0.0037469002440480  0.5728117753666614   T   T   T
  0.0833333333333357  0.3333333333333357  0.3817991009012260   F   F   F
  0.3333333333333357  0.3333333333333357  0.3817991009012260   F   F   F
  0.1681027751782397  0.4166758915402258  0.4754745742812666   T   T   T
  0.9211975882221285  0.4164853936699952  0.4712453890517584   T   T   T
  0.3333333333333357  0.5833333333333357  0.3817991009012260   F   F   F
  0.2669386576394513  0.4862814405891069  0.6274402937081722   T   T   T
  0.3333333333333357  0.8333333333333357  0.3817991009012260   F   F   F
  0.1711427086691204  0.9168722004940579  0.4767637595165417   T   T   T
  0.9220902852847996  0.1647004352793506  0.4692120763193780   T   T   T
  0.7598932974107560  0.7429657584875049  0.6104460306679088   T   T   T
  0.4166086291288162  0.1648839170462985  0.4758997653497629   T   T   T
 -0.0012741469819541  0.2490137358030376  0.5557165865235926   T   T   T
  0.0833333333333357  0.0833333333333357  0.3817991009012260   F   F   F
  0.8333333333333357  0.8333333333333357  0.3817991009012260   F   F   F
  0.7433854974639528  0.4907276116814099  0.6001105301335412   T   T   T
  0.4226151802095154  0.6691475314236695  0.4757670032224927   T   T   T
  0.8333333333333357  0.3333333333333357  0.3817991009012260   F   F   F
  0.7517822863624823  0.9724102831848394  0.5655739715019573   T   T   T
  0.8333333333333357  0.0833333333333357  0.3817991009012260   F   F   F
  0.5022573230502554  0.7429840389912571  0.5960293222838196   T   T   T
  0.9906112013546365  0.7594696197024516  0.6323870115889227   T   T   T
  0.0833333333333357  0.5833333333333357  0.3817991009012260   F   F   F
 
  0.00000000E+00  0.00000000E+00  0.00000000E+00
  0.00000000E+00  0.00000000E+00  0.00000000E+00
  0.00000000E+00  0.00000000E+00  0.00000000E+00
  0.00000000E+00  0.00000000E+00  0.00000000E+00
  0.00000000E+00  0.00000000E+00  0.00000000E+00
  0.00000000E+00  0.00000000E+00  0.00000000E+00
  0.00000000E+00  0.00000000E+00  0.00000000E+00
  0.00000000E+00  0.00000000E+00  0.00000000E+00
  0.00000000E+00  0.00000000E+00  0.00000000E+00
  0.00000000E+00  0.00000000E+00  0.00000000E+00
  0.00000000E+00  0.00000000E+00  0.00000000E+00
  0.00000000E+00  0.00000000E+00  0.00000000E+00
  0.00000000E+00  0.00000000E+00  0.00000000E+00
  0.00000000E+00  0.00000000E+00  0.00000000E+00
  0.00000000E+00  0.00000000E+00  0.00000000E+00
  0.00000000E+00  0.00000000E+00  0.00000000E+00
  0.00000000E+00  0.00000000E+00  0.00000000E+00
  0.00000000E+00  0.00000000E+00  0.00000000E+00
  0.00000000E+00  0.00000000E+00  0.00000000E+00
  0.00000000E+00  0.00000000E+00  0.00000000E+00
  0.00000000E+00  0.00000000E+00  0.00000000E+00
  0.00000000E+00  0.00000000E+00  0.00000000E+00
  0.00000000E+00  0.00000000E+00  0.00000000E+00
  0.00000000E+00  0.00000000E+00  0.00000000E+00
  0.00000000E+00  0.00000000E+00  0.00000000E+00
  0.00000000E+00  0.00000000E+00  0.00000000E+00
  0.00000000E+00  0.00000000E+00  0.00000000E+00
  0.00000000E+00  0.00000000E+00  0.00000000E+00
  0.00000000E+00  0.00000000E+00  0.00000000E+00
  0.00000000E+00  0.00000000E+00  0.00000000E+00
  0.00000000E+00  0.00000000E+00  0.00000000E+00
  0.00000000E+00  0.00000000E+00  0.00000000E+00
  0.00000000E+00  0.00000000E+00  0.00000000E+00
  0.00000000E+00  0.00000000E+00  0.00000000E+00
  0.00000000E+00  0.00000000E+00  0.00000000E+00
  0.00000000E+00  0.00000000E+00  0.00000000E+00
  0.00000000E+00  0.00000000E+00  0.00000000E+00
  0.00000000E+00  0.00000000E+00  0.00000000E+00
  0.00000000E+00  0.00000000E+00  0.00000000E+00
  0.00000000E+00  0.00000000E+00  0.00000000E+00
  0.00000000E+00  0.00000000E+00  0.00000000E+00
  0.00000000E+00  0.00000000E+00  0.00000000E+00
  0.00000000E+00  0.00000000E+00  0.00000000E+00
  0.00000000E+00  0.00000000E+00  0.00000000E+00
  0.00000000E+00  0.00000000E+00  0.00000000E+00
  0.00000000E+00  0.00000000E+00  0.00000000E+00
  0.00000000E+00  0.00000000E+00  0.00000000E+00
  0.00000000E+00  0.00000000E+00  0.00000000E+00
  0.00000000E+00  0.00000000E+00  0.00000000E+00
  0.00000000E+00  0.00000000E+00  0.00000000E+00
  0.00000000E+00  0.00000000E+00  0.00000000E+00
  0.00000000E+00  0.00000000E+00  0.00000000E+00
  0.00000000E+00  0.00000000E+00  0.00000000E+00
  0.00000000E+00  0.00000000E+00  0.00000000E+00
  0.00000000E+00  0.00000000E+00  0.00000000E+00
  0.00000000E+00  0.00000000E+00  0.00000000E+00
