Au Pd                                   
   1.00000000000000     
    11.0025815152626798    0.0000000000000000    0.0000000000000000
     5.5012907576313399    9.5285150994265617    0.0000000000000000
     0.0000000000000000    0.0000000000000000   24.4917850942952882
   Au   Pd
    24    24
Selective dynamics
Direct
  0.0833333333333357  0.0833333333333357  0.4083001692812189   F   F   F
  0.2470936545984688  0.0020557922097782  0.6119705622512936   T   T   T
 -0.0017132689627123  0.7484852016159799  0.6096741104220199   T   T   T
  0.9197576637990031  0.9134813917718673  0.5069888980215294   T   T   T
  0.3333333333333357  0.3333333333333357  0.4083001692812189   F   F   F
  0.1635647971793846  0.1697635298531807  0.5094177708959529   T   T   T
  0.2489753749801249  0.7504800600640573  0.6102882565058123   T   T   T
  0.3333333333333357  0.5833333333333357  0.4083001692812189   F   F   F
  0.5038066595991696  0.7461748937796837  0.6156153402828238   T   T   T
  0.6688037591454824  0.6659220836683573  0.5075629234881855   T   T   T
  0.8333333333333357  0.5833333333333357  0.4083001692812189   F   F   F
  0.8333333333333357  0.3333333333333357  0.4083001692812189   F   F   F
  0.3333333333333357  0.0833333333333357  0.4083001692812189   F   F   F
  0.6688801628430208  0.1656113408356475  0.5103376032800874   T   T   T
  0.8333333333333357  0.0833333333333357  0.4083001692812189   F   F   F
  0.4177475344507636  0.9157058773691068  0.5081190254762993   T   T   T
  0.2481141124237804  0.4987532149627670  0.6117005659898848   T   T   T
  0.4166045129529153  0.6664557021696292  0.5081288368418476   T   T   T
  0.5009385353373768  0.2514061975140614  0.6182545625267524   T   T   T
  0.4160971344252501  0.4171648327970500  0.5123381340879914   T   T   T
  0.5833333333333357  0.3333333333333357  0.4083001692812189   F   F   F
  0.5011760994252794 -0.0013836897002399  0.6141948608385394   T   T   T
  0.4183172581784009  0.1660237780718369  0.5105480825161718   T   T   T
  0.7512812946662778 -0.0002739680093932  0.6125277493212697   T   T   T
  0.5833333333333357  0.8333333333333357  0.4083001692812189   F   F   F
  0.2485303979897224  0.2511810938900682  0.6063173923692371   T   T   T
  0.0833333333333357  0.8333333333333357  0.4083001692812189   F   F   F
  0.5833333333333357  0.5833333333333357  0.4083001692812189   F   F   F
  0.1656531514779957  0.6661926427868197  0.5077214480557052   T   T   T
  0.6692440765100713  0.9150569198644067  0.5068385546104500   T   T   T
  0.1664632836994957  0.9159826249265981  0.5076822581404996   T   T   T
  0.3333333333333357  0.8333333333333357  0.4083001692812189   F   F   F
 -0.0010712879461339  0.4980277561745671  0.6026876470227327   T   T   T
  0.5833333333333357  0.0833333333333357  0.4083001692812189   F   F   F
  0.5026413682249279  0.4992675979266462  0.6068880594591308   T   T   T
  0.9170804008745922  0.1679936274296551  0.5086434546500236   T   T   T
 -0.0019961781581204  0.2516224043920453  0.6049438025462276   T   T   T
  0.8333333333333357  0.8333333333333357  0.4083001692812189   F   F   F
  0.7521188331986455  0.4983210792293088  0.6038320052740448   T   T   T
 -0.0016484358090266  0.0026786474736080  0.6042323911502573   T   T   T
  0.7508181486111820  0.2525663079543845  0.6056940696625703   T   T   T
  0.1638544615735835  0.4202929994003808  0.5072992849137216   T   T   T
  0.6690201849495045  0.4157538020553308  0.5081724411741809   T   T   T
  0.0833333333333357  0.3333333333333357  0.4083001692812189   F   F   F
  0.9169513390735154  0.4166932081659930  0.5068638289356785   T   T   T
  0.9193472376036549  0.6646512450069550  0.5063578257240461   T   T   T
  0.0833333333333357  0.5833333333333357  0.4083001692812189   F   F   F
  0.7514890318266663  0.7474638403234695  0.6041070977338298   T   T   T
 
  0.00000000E+00  0.00000000E+00  0.00000000E+00
  0.00000000E+00  0.00000000E+00  0.00000000E+00
  0.00000000E+00  0.00000000E+00  0.00000000E+00
  0.00000000E+00  0.00000000E+00  0.00000000E+00
  0.00000000E+00  0.00000000E+00  0.00000000E+00
  0.00000000E+00  0.00000000E+00  0.00000000E+00
  0.00000000E+00  0.00000000E+00  0.00000000E+00
  0.00000000E+00  0.00000000E+00  0.00000000E+00
  0.00000000E+00  0.00000000E+00  0.00000000E+00
  0.00000000E+00  0.00000000E+00  0.00000000E+00
  0.00000000E+00  0.00000000E+00  0.00000000E+00
  0.00000000E+00  0.00000000E+00  0.00000000E+00
  0.00000000E+00  0.00000000E+00  0.00000000E+00
  0.00000000E+00  0.00000000E+00  0.00000000E+00
  0.00000000E+00  0.00000000E+00  0.00000000E+00
  0.00000000E+00  0.00000000E+00  0.00000000E+00
  0.00000000E+00  0.00000000E+00  0.00000000E+00
  0.00000000E+00  0.00000000E+00  0.00000000E+00
  0.00000000E+00  0.00000000E+00  0.00000000E+00
  0.00000000E+00  0.00000000E+00  0.00000000E+00
  0.00000000E+00  0.00000000E+00  0.00000000E+00
  0.00000000E+00  0.00000000E+00  0.00000000E+00
  0.00000000E+00  0.00000000E+00  0.00000000E+00
  0.00000000E+00  0.00000000E+00  0.00000000E+00
  0.00000000E+00  0.00000000E+00  0.00000000E+00
  0.00000000E+00  0.00000000E+00  0.00000000E+00
  0.00000000E+00  0.00000000E+00  0.00000000E+00
  0.00000000E+00  0.00000000E+00  0.00000000E+00
  0.00000000E+00  0.00000000E+00  0.00000000E+00
  0.00000000E+00  0.00000000E+00  0.00000000E+00
  0.00000000E+00  0.00000000E+00  0.00000000E+00
  0.00000000E+00  0.00000000E+00  0.00000000E+00
  0.00000000E+00  0.00000000E+00  0.00000000E+00
  0.00000000E+00  0.00000000E+00  0.00000000E+00
  0.00000000E+00  0.00000000E+00  0.00000000E+00
  0.00000000E+00  0.00000000E+00  0.00000000E+00
  0.00000000E+00  0.00000000E+00  0.00000000E+00
  0.00000000E+00  0.00000000E+00  0.00000000E+00
  0.00000000E+00  0.00000000E+00  0.00000000E+00
  0.00000000E+00  0.00000000E+00  0.00000000E+00
  0.00000000E+00  0.00000000E+00  0.00000000E+00
  0.00000000E+00  0.00000000E+00  0.00000000E+00
  0.00000000E+00  0.00000000E+00  0.00000000E+00
  0.00000000E+00  0.00000000E+00  0.00000000E+00
  0.00000000E+00  0.00000000E+00  0.00000000E+00
  0.00000000E+00  0.00000000E+00  0.00000000E+00
  0.00000000E+00  0.00000000E+00  0.00000000E+00
  0.00000000E+00  0.00000000E+00  0.00000000E+00
