Au Pd                                   
   1.00000000000000     
    11.0025815152626798    0.0000000000000000    0.0000000000000000
     5.5012907576313399    9.5285150994265617    0.0000000000000000
     0.0000000000000000    0.0000000000000000   24.4917850942952882
   Au   Pd
    24    24
Direct
  0.0851662864045031  0.0838493782167258  0.3966278141026309
  0.5833742266744406  0.3345645447939122  0.3961088534148410
  0.5000219449215331 -0.0029837914682194  0.6046714644499468
  0.4142629702909248  0.1702138874572751  0.4999215220757552
  0.5828247586057967  0.0805971324138953  0.3950454699996255
  0.1666016541701873  0.9157867992230853  0.4998341266462193
  0.3363849024719658  0.8324290593878727  0.3936039551552771
  0.4166825895322862  0.9172194883543703  0.5003129155271493
  0.8342045250770774  0.0830889355966785  0.3960204114426317
  0.2507965259972325  0.2502943365387310  0.6033719066643528
  0.6660544500448088  0.1684373208358850  0.4998576035208471
  0.7500919323213178 -0.0031321825583016  0.6016792278187397
  0.3318413535605699  0.3352013151559322  0.3969395546504472
  0.7459230053250586  0.5022805942804819  0.6042034507482018
  0.9160621337173056  0.1692802398034318  0.5019136688745568
  0.0018930619919722 -0.0042109457580634  0.6040107174390786
  0.0818471624338653  0.3348969602420043  0.4026466933957236
  0.8340237561715216  0.8298049901206765  0.3997151525929411
  0.0009939641467371  0.2485903313825156  0.6054487615561137
  0.6683210364611269  0.6655140601622920  0.5015012928847152
  0.5863514396417270  0.5825068903607576  0.3978446366693643
 -0.0002817812128708  0.5028206996137866  0.6022636251242925
  0.0853281230024229  0.8300166426239567  0.3969759546745329
  0.7455135002863901  0.2519216873977233  0.6063516318826548
  0.6646450636013046  0.4183824442053484  0.5002328586353130
  0.5842981451166404  0.8324517125291646  0.4035185439658650
  0.8345808566674430  0.5825818292589736  0.4062756751241779
  0.4166207303216013  0.6655717666597845  0.4974853277130376
  0.4979974729845981  0.5001574943070313  0.5938377046049097
  0.4967071004082568  0.7485344384438503  0.5969465562981153
  0.8339025257188292  0.3332427881552157  0.4057220224077528
  0.2517257019958997  0.7468298173452254  0.5952093987889248
  0.4143195892283238  0.4209349643990896  0.4973722919256371
  0.6686257670404707  0.9167147137212029  0.5004765632483793
  0.2510277704290099  0.5008687799315111  0.5939176875329882
  0.1667318996080362  0.6672355295137520  0.4986802728262253
  0.3331761462430623  0.5835402399695643  0.4018958414991017
  0.1645860308141693  0.4202738096285137  0.5007364263236822
  0.2504630184013119 -0.0022563273757951  0.5978610941546486
  0.1649590663815712  0.1692510695235245  0.5016429438513224
  0.3343765551558435  0.0828372352665862  0.4032501484586485
  0.0025525641442472  0.7478297887335144  0.5951316677719574
  0.9172214318304098  0.9152101112068808  0.4996587988159198
  0.9182897390649611  0.6679544703062369  0.5010232535223639
  0.0840893623030346  0.5829398560075626  0.4044923447302045
  0.9176381732647315  0.4179794849005959  0.5036104931409259
  0.4975333087553319  0.2525225434011563  0.5962383564379931
  0.7496484584830108  0.7494230657841049  0.5979133169112671
 
  0.00000000E+00  0.00000000E+00  0.00000000E+00
  0.00000000E+00  0.00000000E+00  0.00000000E+00
  0.00000000E+00  0.00000000E+00  0.00000000E+00
  0.00000000E+00  0.00000000E+00  0.00000000E+00
  0.00000000E+00  0.00000000E+00  0.00000000E+00
  0.00000000E+00  0.00000000E+00  0.00000000E+00
  0.00000000E+00  0.00000000E+00  0.00000000E+00
  0.00000000E+00  0.00000000E+00  0.00000000E+00
  0.00000000E+00  0.00000000E+00  0.00000000E+00
  0.00000000E+00  0.00000000E+00  0.00000000E+00
  0.00000000E+00  0.00000000E+00  0.00000000E+00
  0.00000000E+00  0.00000000E+00  0.00000000E+00
  0.00000000E+00  0.00000000E+00  0.00000000E+00
  0.00000000E+00  0.00000000E+00  0.00000000E+00
  0.00000000E+00  0.00000000E+00  0.00000000E+00
  0.00000000E+00  0.00000000E+00  0.00000000E+00
  0.00000000E+00  0.00000000E+00  0.00000000E+00
  0.00000000E+00  0.00000000E+00  0.00000000E+00
  0.00000000E+00  0.00000000E+00  0.00000000E+00
  0.00000000E+00  0.00000000E+00  0.00000000E+00
  0.00000000E+00  0.00000000E+00  0.00000000E+00
  0.00000000E+00  0.00000000E+00  0.00000000E+00
  0.00000000E+00  0.00000000E+00  0.00000000E+00
  0.00000000E+00  0.00000000E+00  0.00000000E+00
  0.00000000E+00  0.00000000E+00  0.00000000E+00
  0.00000000E+00  0.00000000E+00  0.00000000E+00
  0.00000000E+00  0.00000000E+00  0.00000000E+00
  0.00000000E+00  0.00000000E+00  0.00000000E+00
  0.00000000E+00  0.00000000E+00  0.00000000E+00
  0.00000000E+00  0.00000000E+00  0.00000000E+00
  0.00000000E+00  0.00000000E+00  0.00000000E+00
  0.00000000E+00  0.00000000E+00  0.00000000E+00
  0.00000000E+00  0.00000000E+00  0.00000000E+00
  0.00000000E+00  0.00000000E+00  0.00000000E+00
  0.00000000E+00  0.00000000E+00  0.00000000E+00
  0.00000000E+00  0.00000000E+00  0.00000000E+00
  0.00000000E+00  0.00000000E+00  0.00000000E+00
  0.00000000E+00  0.00000000E+00  0.00000000E+00
  0.00000000E+00  0.00000000E+00  0.00000000E+00
  0.00000000E+00  0.00000000E+00  0.00000000E+00
  0.00000000E+00  0.00000000E+00  0.00000000E+00
  0.00000000E+00  0.00000000E+00  0.00000000E+00
  0.00000000E+00  0.00000000E+00  0.00000000E+00
  0.00000000E+00  0.00000000E+00  0.00000000E+00
  0.00000000E+00  0.00000000E+00  0.00000000E+00
  0.00000000E+00  0.00000000E+00  0.00000000E+00
  0.00000000E+00  0.00000000E+00  0.00000000E+00
  0.00000000E+00  0.00000000E+00  0.00000000E+00
