Au  O Pd                                
   1.00000000000000     
    11.0025815152626798    0.0000000000000000    0.0000000000000000
     5.5012907576313399    9.5285150994265617    0.0000000000000000
     0.0000000000000000    0.0000000000000000   26.1917850942952910
   Au   O    Pd
    24     8    24
Selective dynamics
Direct
  0.0833333333333357  0.0833333333333357  0.3817991009012260   F   F   F
  0.2495534662719948  0.5027283180548354  0.5624530437635167   T   T   T
  0.7255966196930819  0.0066068366704680  0.5677435488745466   T   T   T
  0.8333333333333357  0.8333333333333357  0.3817991009012260   F   F   F
  0.6628848873501458  0.4214899714064792  0.4755908307718575   T   T   T
  0.8333333333333357  0.3333333333333357  0.3817991009012260   F   F   F
  0.0833333333333357  0.3333333333333357  0.3817991009012260   F   F   F
  0.9170778893558902  0.4122613580168669  0.4795473745520850   T   T   T
 -0.0315033646318646  0.2734175114598947  0.6047602546865510   T   T   T
  0.0833333333333357  0.5833333333333357  0.3817991009012260   F   F   F
  0.9151967781484278  0.6651787570233260  0.4762445990954153   T   T   T
  0.9171792903791074  0.9212979420649353  0.4778246922776573   T   T   T
  0.0029255962456899  0.4926850228798701  0.5708318920268413   T   T   T
  0.1652811861391382  0.6733877673858449  0.4735092151950855   T   T   T
  0.0062516748764883  0.7490041444314126  0.5738316761501367   T   T   T
  0.4897054526611228  0.7532194569245948  0.5625993312043046   T   T   T
  0.3333333333333357  0.0833333333333357  0.3817991009012260   F   F   F
  0.1674735394048449  0.1642838516286383  0.5074484807688883   T   T   T
  0.2619234898714726 -0.0102594179178441  0.5998865709156753   T   T   T
  0.4117108811768990  0.9185585943528435  0.4726437305836286   T   T   T
  0.1696400627829959  0.4078284068025501  0.4775321288204117   T   T   T
  0.4158532265205254  0.4197766750957309  0.4698791402926311   T   T   T
  0.7380907550222171  0.7468717491206340  0.5640079510831910   T   T   T
  0.6675834937021207  0.1662521761866811  0.4714078735271233   T   T   T
  0.4766371488353506  0.2868704092661183  0.6326820526421100   T   T   T
  0.0905600996384157  0.3599868572811651  0.6383382662093191   T   T   T
  0.0687552678800010  0.0667267241650099  0.6347569350984713   T   T   T
  0.3721700756891791  0.0921042500069002  0.6266273174370118   T   T   T
  0.8245181835188801  0.8209205273911936  0.6188176589007411   T   T   T
  0.3141994808390077  0.6031940779847482  0.6199214737126277   T   T   T
  0.5858052027495265  0.5742534480604314  0.6161374073344972   T   T   T
  0.8145348768346961  0.1045311601745069  0.6121066035203366   T   T   T
  0.5833333333333357  0.5833333333333357  0.3817991009012260   F   F   F
  0.5833333333333357  0.3333333333333357  0.3817991009012260   F   F   F
  0.2871220328522706  0.3024501147212336  0.6323305805725296   T   T   T
  0.3333333333333357  0.3333333333333357  0.3817991009012260   F   F   F
  0.4734710097508529  0.0199379394602957  0.5610156158427039   T   T   T
  0.4133601784386612  0.1668443712281996  0.4704078656623365   T   T   T
  0.5833333333333357  0.0833333333333357  0.3817991009012260   F   F   F
  0.2478809529291757  0.7583905962374943  0.5664212967345216   T   T   T
  0.1656681659131658  0.9225832423873120  0.4802473654816355   T   T   T
  0.5152426256559181  0.4450962783938796  0.6211331265338755   T   T   T
  0.3333333333333357  0.8333333333333357  0.3817991009012260   F   F   F
  0.5833333333333357  0.8333333333333357  0.3817991009012260   F   F   F
  0.3333333333333357  0.5833333333333357  0.3817991009012260   F   F   F
  0.8333333333333357  0.0833333333333357  0.3817991009012260   F   F   F
  0.0833333333333357  0.8333333333333357  0.3817991009012260   F   F   F
  0.0006460764530299  0.0010016637971184  0.5750985019720055   T   T   T
  0.7468489760240465  0.2616630110906527  0.5640633407395420   T   T   T
  0.8333333333333357  0.5833333333333357  0.3817991009012260   F   F   F
  0.6643057695660769  0.6669007760687783  0.4723662675192241   T   T   T
  0.7440433699796832  0.5008739356933629  0.5665374659964713   T   T   T
  0.9216026788557296  0.1664532886061994  0.4749920521084989   T   T   T
  0.6618367595912192  0.9186617551902526  0.4740541866816356   T   T   T
  0.4125216927059696  0.6706666940477595  0.4710606461935216   T   T   T
  0.4926851809298607  0.2545662476599494  0.5569677588293953   T   T   T
 
  0.00000000E+00  0.00000000E+00  0.00000000E+00
  0.00000000E+00  0.00000000E+00  0.00000000E+00
  0.00000000E+00  0.00000000E+00  0.00000000E+00
  0.00000000E+00  0.00000000E+00  0.00000000E+00
  0.00000000E+00  0.00000000E+00  0.00000000E+00
  0.00000000E+00  0.00000000E+00  0.00000000E+00
  0.00000000E+00  0.00000000E+00  0.00000000E+00
  0.00000000E+00  0.00000000E+00  0.00000000E+00
  0.00000000E+00  0.00000000E+00  0.00000000E+00
  0.00000000E+00  0.00000000E+00  0.00000000E+00
  0.00000000E+00  0.00000000E+00  0.00000000E+00
  0.00000000E+00  0.00000000E+00  0.00000000E+00
  0.00000000E+00  0.00000000E+00  0.00000000E+00
  0.00000000E+00  0.00000000E+00  0.00000000E+00
  0.00000000E+00  0.00000000E+00  0.00000000E+00
  0.00000000E+00  0.00000000E+00  0.00000000E+00
  0.00000000E+00  0.00000000E+00  0.00000000E+00
  0.00000000E+00  0.00000000E+00  0.00000000E+00
  0.00000000E+00  0.00000000E+00  0.00000000E+00
  0.00000000E+00  0.00000000E+00  0.00000000E+00
  0.00000000E+00  0.00000000E+00  0.00000000E+00
  0.00000000E+00  0.00000000E+00  0.00000000E+00
  0.00000000E+00  0.00000000E+00  0.00000000E+00
  0.00000000E+00  0.00000000E+00  0.00000000E+00
  0.00000000E+00  0.00000000E+00  0.00000000E+00
  0.00000000E+00  0.00000000E+00  0.00000000E+00
  0.00000000E+00  0.00000000E+00  0.00000000E+00
  0.00000000E+00  0.00000000E+00  0.00000000E+00
  0.00000000E+00  0.00000000E+00  0.00000000E+00
  0.00000000E+00  0.00000000E+00  0.00000000E+00
  0.00000000E+00  0.00000000E+00  0.00000000E+00
  0.00000000E+00  0.00000000E+00  0.00000000E+00
  0.00000000E+00  0.00000000E+00  0.00000000E+00
  0.00000000E+00  0.00000000E+00  0.00000000E+00
  0.00000000E+00  0.00000000E+00  0.00000000E+00
  0.00000000E+00  0.00000000E+00  0.00000000E+00
  0.00000000E+00  0.00000000E+00  0.00000000E+00
  0.00000000E+00  0.00000000E+00  0.00000000E+00
  0.00000000E+00  0.00000000E+00  0.00000000E+00
  0.00000000E+00  0.00000000E+00  0.00000000E+00
  0.00000000E+00  0.00000000E+00  0.00000000E+00
  0.00000000E+00  0.00000000E+00  0.00000000E+00
  0.00000000E+00  0.00000000E+00  0.00000000E+00
  0.00000000E+00  0.00000000E+00  0.00000000E+00
  0.00000000E+00  0.00000000E+00  0.00000000E+00
  0.00000000E+00  0.00000000E+00  0.00000000E+00
  0.00000000E+00  0.00000000E+00  0.00000000E+00
  0.00000000E+00  0.00000000E+00  0.00000000E+00
  0.00000000E+00  0.00000000E+00  0.00000000E+00
  0.00000000E+00  0.00000000E+00  0.00000000E+00
  0.00000000E+00  0.00000000E+00  0.00000000E+00
  0.00000000E+00  0.00000000E+00  0.00000000E+00
  0.00000000E+00  0.00000000E+00  0.00000000E+00
  0.00000000E+00  0.00000000E+00  0.00000000E+00
  0.00000000E+00  0.00000000E+00  0.00000000E+00
  0.00000000E+00  0.00000000E+00  0.00000000E+00
