Au Pd                                   
   1.00000000000000     
    11.0025815152626798    0.0000000000000000    0.0000000000000000
     5.5012907576313399    9.5285150994265617    0.0000000000000000
     0.0000000000000000    0.0000000000000000   24.4917850942952882
   Au   Pd
    24    24
Selective dynamics
Direct
  0.2497449194694041  0.7508026246412820  0.6098620880757529   T   T   T
  0.6719677789523012  0.4139236811860586  0.5102047918353957   T   T   T
  0.9178382752544547  0.9180576274243712  0.5083043605616717   T   T   T
  0.5833333333333357  0.5833333333333357  0.4083001692812189   F   F   F
 -0.0013335616096673  0.5005391742286373  0.6091937849723223   T   T   T
  0.3333333333333357  0.0833333333333357  0.4083001692812189   F   F   F
  0.7525832833895384  0.2495799516326775  0.6148951417453864   T   T   T
  0.8333333333333357  0.5833333333333357  0.4083001692812189   F   F   F
  0.6672831244159850  0.6643424407075454  0.5116635098169677   T   T   T
  0.0001509621044002  0.0002759998134703  0.6097133467102022   T   T   T
  0.9196008608930305  0.6634944983584575  0.5080953008562679   T   T   T
  0.6688566606625730  0.1660001929972159  0.5105803930057438   T   T   T
  0.0833333333333357  0.8333333333333357  0.4083001692812189   F   F   F
  0.2476501665774417  0.2502966649690305  0.6078728429976077   T   T   T
  0.1686170337974581  0.6649631825961796  0.5073921427103989   T   T   T
  0.4128217275305628  0.9168338467926208  0.5088996160886844   T   T   T
  0.5833333333333357  0.8333333333333357  0.4083001692812189   F   F   F
  0.4999865208014370  0.5019685179638875  0.6121275335744534   T   T   T
  0.6664040773155177  0.9167418342247713  0.5106756891438806   T   T   T
  0.5833333333333357  0.0833333333333357  0.4083001692812189   F   F   F
  0.5005586817525219 -0.0023116144049964  0.6127311394503187   T   T   T
  0.5833333333333357  0.3333333333333357  0.4083001692812189   F   F   F
  0.4150028421457084  0.4154613424471822  0.5076204017383827   T   T   T
  0.4995698491364396  0.2498714618989550  0.6138177677443432   T   T   T
  0.3333333333333357  0.3333333333333357  0.4083001692812189   F   F   F
  0.2485930525643797  0.0011895635544030  0.6041640960112079   T   T   T
  0.1653832366776477  0.1681612917124608  0.5056429105390655   T   T   T
 -0.0009320015173882  0.7502723466063953  0.6064634435070395   T   T   T
  0.9210387298287378  0.1655907139550534  0.5055756934603537   T   T   T
 -0.0005821305341421  0.2494937727041961  0.6017435113936300   T   T   T
  0.9206919758163191  0.4132419544813075  0.5066045572868672   T   T   T
  0.0833333333333357  0.3333333333333357  0.4083001692812189   F   F   F
  0.1668277677138500  0.4122130344546958  0.5057754937876661   T   T   T
  0.0833333333333357  0.5833333333333357  0.4083001692812189   F   F   F
  0.3333333333333357  0.5833333333333357  0.4083001692812189   F   F   F
  0.8333333333333357  0.3333333333333357  0.4083001692812189   F   F   F
  0.3333333333333357  0.8333333333333357  0.4083001692812189   F   F   F
  0.1665006640442473  0.9186644791859521  0.5073310168203414   T   T   T
  0.0833333333333357  0.0833333333333357  0.4083001692812189   F   F   F
  0.8333333333333357  0.8333333333333357  0.4083001692812189   F   F   F
  0.7510330985739856 -0.0017953838598461  0.6089101843355353   T   T   T
  0.7512467303827653  0.5000150936010990  0.6074426461436259   T   T   T
  0.4156312660298063  0.6663921747524691  0.5085551990926753   T   T   T
  0.8333333333333357  0.0833333333333357  0.4083001692812189   F   F   F
  0.4999794437051758  0.7503907276974336  0.6070447116183658   T   T   T
  0.4146186196142469  0.1673352544822474  0.5095799003115217   T   T   T
  0.2487100867389351  0.5005241806995785  0.6049578998509235   T   T   T
  0.7506123904934764  0.7499653622873049  0.6080614196164557   T   T   T
 
  0.00000000E+00  0.00000000E+00  0.00000000E+00
  0.00000000E+00  0.00000000E+00  0.00000000E+00
  0.00000000E+00  0.00000000E+00  0.00000000E+00
  0.00000000E+00  0.00000000E+00  0.00000000E+00
  0.00000000E+00  0.00000000E+00  0.00000000E+00
  0.00000000E+00  0.00000000E+00  0.00000000E+00
  0.00000000E+00  0.00000000E+00  0.00000000E+00
  0.00000000E+00  0.00000000E+00  0.00000000E+00
  0.00000000E+00  0.00000000E+00  0.00000000E+00
  0.00000000E+00  0.00000000E+00  0.00000000E+00
  0.00000000E+00  0.00000000E+00  0.00000000E+00
  0.00000000E+00  0.00000000E+00  0.00000000E+00
  0.00000000E+00  0.00000000E+00  0.00000000E+00
  0.00000000E+00  0.00000000E+00  0.00000000E+00
  0.00000000E+00  0.00000000E+00  0.00000000E+00
  0.00000000E+00  0.00000000E+00  0.00000000E+00
  0.00000000E+00  0.00000000E+00  0.00000000E+00
  0.00000000E+00  0.00000000E+00  0.00000000E+00
  0.00000000E+00  0.00000000E+00  0.00000000E+00
  0.00000000E+00  0.00000000E+00  0.00000000E+00
  0.00000000E+00  0.00000000E+00  0.00000000E+00
  0.00000000E+00  0.00000000E+00  0.00000000E+00
  0.00000000E+00  0.00000000E+00  0.00000000E+00
  0.00000000E+00  0.00000000E+00  0.00000000E+00
  0.00000000E+00  0.00000000E+00  0.00000000E+00
  0.00000000E+00  0.00000000E+00  0.00000000E+00
  0.00000000E+00  0.00000000E+00  0.00000000E+00
  0.00000000E+00  0.00000000E+00  0.00000000E+00
  0.00000000E+00  0.00000000E+00  0.00000000E+00
  0.00000000E+00  0.00000000E+00  0.00000000E+00
  0.00000000E+00  0.00000000E+00  0.00000000E+00
  0.00000000E+00  0.00000000E+00  0.00000000E+00
  0.00000000E+00  0.00000000E+00  0.00000000E+00
  0.00000000E+00  0.00000000E+00  0.00000000E+00
  0.00000000E+00  0.00000000E+00  0.00000000E+00
  0.00000000E+00  0.00000000E+00  0.00000000E+00
  0.00000000E+00  0.00000000E+00  0.00000000E+00
  0.00000000E+00  0.00000000E+00  0.00000000E+00
  0.00000000E+00  0.00000000E+00  0.00000000E+00
  0.00000000E+00  0.00000000E+00  0.00000000E+00
  0.00000000E+00  0.00000000E+00  0.00000000E+00
  0.00000000E+00  0.00000000E+00  0.00000000E+00
  0.00000000E+00  0.00000000E+00  0.00000000E+00
  0.00000000E+00  0.00000000E+00  0.00000000E+00
  0.00000000E+00  0.00000000E+00  0.00000000E+00
  0.00000000E+00  0.00000000E+00  0.00000000E+00
  0.00000000E+00  0.00000000E+00  0.00000000E+00
  0.00000000E+00  0.00000000E+00  0.00000000E+00
