Au  O Pd                                
   1.00000000000000     
    11.0025815152626798    0.0000000000000000    0.0000000000000000
     5.5012907576313399    9.5285150994265617    0.0000000000000000
     0.0000000000000000    0.0000000000000000   26.1917850942952910
   Au   O    Pd
    24     8    24
Selective dynamics
Direct
  0.2232965843464370  0.0078647465368005  0.5688975154538801   T   T   T
  0.6630451595466023  0.1678903377627167  0.4757650716044043   T   T   T
  0.9843131566917140  0.2768358594297307  0.5705529039469398   T   T   T
  0.0833333333333357  0.3333333333333357  0.3817991009012260   F   F   F
  0.0833333333333357  0.5833333333333357  0.3817991009012260   F   F   F
  0.0111046795414148  0.5154903193246790  0.5637077440607982   T   T   T
  0.7339748546381117  0.2671600913574511  0.5626703515066309   T   T   T
  0.9183482783542175  0.1645184076279818  0.4807419722002602   T   T   T
  0.7720740769716193 -0.0092564959936656  0.5619727051735087   T   T   T
  0.8333333333333357  0.3333333333333357  0.3817991009012260   F   F   F
  0.4152236233033543  0.4203840230385372  0.4745092157186813   T   T   T
  0.3333333333333357  0.0833333333333357  0.3817991009012260   F   F   F
  0.8333333333333357  0.0833333333333357  0.3817991009012260   F   F   F
  0.4767561913813295  0.7507145632931873  0.5630758191516457   T   T   T
  0.1643342073504118  0.4216661852890443  0.4759877981813098   T   T   T
  0.2565295626291839  0.2520684499215422  0.5692641669807638   T   T   T
  0.2360831166438098  0.5210968180683342  0.6037022652445290   T   T   T
  0.5330384057882369  0.5150126134686506  0.6143391510146066   T   T   T
  0.4115091427037904  0.6694317430142044  0.4712508882987843   T   T   T
  0.2044587470833047  0.7680843444884784  0.5641328852760835   T   T   T
  0.5833333333333357  0.0833333333333357  0.3817991009012260   F   F   F
  0.4151256643867560  0.1676549396451417  0.4758281652111269   T   T   T
  0.4941518905334294  0.9915489631704699  0.5667909653517168   T   T   T
  0.8333333333333357  0.8333333333333357  0.3817991009012260   F   F   F
  0.7685558284730404  0.0128443707468300  0.6515383319888788   T   T   T
  0.6456999149673552  0.2962380733249134  0.6386778853824882   T   T   T
  0.8669747914994413  0.6615107025723173  0.6193339976374195   T   T   T
  0.3621722082043522  0.3070574414467079  0.6249238960828010   T   T   T
  0.0551240499663271  0.8729099564074260  0.6404618002870396   T   T   T
  0.3273323569102619  0.6272940471886784  0.6344384882820570   T   T   T
  0.0546733363516051  0.1209300662203187  0.6275243212398282   T   T   T
  0.5138036090133981  0.0267680610323634  0.6407292678779077   T   T   T
  0.7452018855950372  0.7553626428783861  0.5582724566644177   T   T   T
  0.1613662671509980  0.9206087315859361  0.4725904925284211   T   T   T
  0.6617518133099423  0.6704657106889913  0.4696654878254604   T   T   T
  0.1610963614482362  0.6707853799869155  0.4730286601391594   T   T   T
  0.3333333333333357  0.5833333333333357  0.3817991009012260   F   F   F
  0.3333333333333357  0.3333333333333357  0.3817991009012260   F   F   F
  0.1617422071441246  0.1705553909328896  0.4776622637041482   T   T   T
 -0.0367313718370246  0.7684124779383059  0.6248449715597778   T   T   T
  0.9206930636485515  0.9127468756930804  0.4749589313592382   T   T   T
  0.0833333333333357  0.8333333333333357  0.3817991009012260   F   F   F
  0.9121574583442175  0.6710720833122193  0.4715169140436460   T   T   T
  0.6639936610620869  0.9173928554053945  0.4739424583445648   T   T   T
  0.9134190833684647  0.4214373530077118  0.4758272170533949   T   T   T
  0.9093815702089089  0.0717401985183649  0.6382322602563723   T   T   T
  0.5833333333333357  0.3333333333333357  0.3817991009012260   F   F   F
  0.3333333333333357  0.8333333333333357  0.3817991009012260   F   F   F
  0.0833333333333357  0.0833333333333357  0.3817991009012260   F   F   F
  0.5833333333333357  0.8333333333333357  0.3817991009012260   F   F   F
  0.7359839642304866  0.5178689717447328  0.5593493505367407   T   T   T
  0.5833333333333357  0.5833333333333357  0.3817991009012260   F   F   F
  0.6631603007039875  0.4223776862759157  0.4721730593178298   T   T   T
  0.4101258237104158  0.9206977220424821  0.4759478154198207   T   T   T
  0.5657997199232709  0.1679155187581980  0.6367081441795912   T   T   T
  0.8333333333333357  0.5833333333333357  0.3817991009012260   F   F   F
 
  0.00000000E+00  0.00000000E+00  0.00000000E+00
  0.00000000E+00  0.00000000E+00  0.00000000E+00
  0.00000000E+00  0.00000000E+00  0.00000000E+00
  0.00000000E+00  0.00000000E+00  0.00000000E+00
  0.00000000E+00  0.00000000E+00  0.00000000E+00
  0.00000000E+00  0.00000000E+00  0.00000000E+00
  0.00000000E+00  0.00000000E+00  0.00000000E+00
  0.00000000E+00  0.00000000E+00  0.00000000E+00
  0.00000000E+00  0.00000000E+00  0.00000000E+00
  0.00000000E+00  0.00000000E+00  0.00000000E+00
  0.00000000E+00  0.00000000E+00  0.00000000E+00
  0.00000000E+00  0.00000000E+00  0.00000000E+00
  0.00000000E+00  0.00000000E+00  0.00000000E+00
  0.00000000E+00  0.00000000E+00  0.00000000E+00
  0.00000000E+00  0.00000000E+00  0.00000000E+00
  0.00000000E+00  0.00000000E+00  0.00000000E+00
  0.00000000E+00  0.00000000E+00  0.00000000E+00
  0.00000000E+00  0.00000000E+00  0.00000000E+00
  0.00000000E+00  0.00000000E+00  0.00000000E+00
  0.00000000E+00  0.00000000E+00  0.00000000E+00
  0.00000000E+00  0.00000000E+00  0.00000000E+00
  0.00000000E+00  0.00000000E+00  0.00000000E+00
  0.00000000E+00  0.00000000E+00  0.00000000E+00
  0.00000000E+00  0.00000000E+00  0.00000000E+00
  0.00000000E+00  0.00000000E+00  0.00000000E+00
  0.00000000E+00  0.00000000E+00  0.00000000E+00
  0.00000000E+00  0.00000000E+00  0.00000000E+00
  0.00000000E+00  0.00000000E+00  0.00000000E+00
  0.00000000E+00  0.00000000E+00  0.00000000E+00
  0.00000000E+00  0.00000000E+00  0.00000000E+00
  0.00000000E+00  0.00000000E+00  0.00000000E+00
  0.00000000E+00  0.00000000E+00  0.00000000E+00
  0.00000000E+00  0.00000000E+00  0.00000000E+00
  0.00000000E+00  0.00000000E+00  0.00000000E+00
  0.00000000E+00  0.00000000E+00  0.00000000E+00
  0.00000000E+00  0.00000000E+00  0.00000000E+00
  0.00000000E+00  0.00000000E+00  0.00000000E+00
  0.00000000E+00  0.00000000E+00  0.00000000E+00
  0.00000000E+00  0.00000000E+00  0.00000000E+00
  0.00000000E+00  0.00000000E+00  0.00000000E+00
  0.00000000E+00  0.00000000E+00  0.00000000E+00
  0.00000000E+00  0.00000000E+00  0.00000000E+00
  0.00000000E+00  0.00000000E+00  0.00000000E+00
  0.00000000E+00  0.00000000E+00  0.00000000E+00
  0.00000000E+00  0.00000000E+00  0.00000000E+00
  0.00000000E+00  0.00000000E+00  0.00000000E+00
  0.00000000E+00  0.00000000E+00  0.00000000E+00
  0.00000000E+00  0.00000000E+00  0.00000000E+00
  0.00000000E+00  0.00000000E+00  0.00000000E+00
  0.00000000E+00  0.00000000E+00  0.00000000E+00
  0.00000000E+00  0.00000000E+00  0.00000000E+00
  0.00000000E+00  0.00000000E+00  0.00000000E+00
  0.00000000E+00  0.00000000E+00  0.00000000E+00
  0.00000000E+00  0.00000000E+00  0.00000000E+00
  0.00000000E+00  0.00000000E+00  0.00000000E+00
  0.00000000E+00  0.00000000E+00  0.00000000E+00
