Au  O Pd                                
   1.00000000000000     
    11.0025815152626798    0.0000000000000000    0.0000000000000000
     5.5012907576313399    9.5285150994265617    0.0000000000000000
     0.0000000000000000    0.0000000000000000   26.1917850942952910
   Au   O    Pd
    24     8    24
Selective dynamics
Direct
  0.2528468975266921 -0.0066757944860534  0.5663398436899280   T   T   T
  0.6705075658217082  0.1686945551517519  0.4733695180273756   T   T   T
  0.9895557412979870  0.2466533787861702  0.5749104003904428   T   T   T
  0.0833333333333357  0.3333333333333357  0.3817991009012260   F   F   F
  0.0833333333333357  0.5833333333333357  0.3817991009012260   F   F   F
  0.0072397218685575  0.4922640881708475  0.5695578874382192   T   T   T
  0.7226308350284177  0.2662655989299461  0.5672799299452855   T   T   T
  0.9230942929863117  0.1639315839995768  0.4789749829943877   T   T   T
  0.7568060610956486 -0.0048586075401339  0.5567471058032881   T   T   T
  0.8333333333333357  0.3333333333333357  0.3817991009012260   F   F   F
  0.4199634603467530  0.4185517490474246  0.4755171246498889   T   T   T
  0.3333333333333357  0.0833333333333357  0.3817991009012260   F   F   F
  0.8333333333333357  0.0833333333333357  0.3817991009012260   F   F   F
  0.5051736117870904  0.7321217515827525  0.5629395189303168   T   T   T
  0.1703126962913048  0.4173110623261983  0.4789377947725925   T   T   T
  0.2581067364373703  0.2416694266307886  0.5702968399211825   T   T   T
  0.2692404248381559  0.4901316484131242  0.5757705194343886   T   T   T
  0.5330441707633541  0.5155635024663084  0.6174811179707336   T   T   T
  0.4210493131741681  0.6667370175542320  0.4693485797738734   T   T   T
  0.2408075490433734  0.7573487948762826  0.5583365480717645   T   T   T
  0.5833333333333357  0.0833333333333357  0.3817991009012260   F   F   F
  0.4218582384555709  0.1646613476074587  0.4773729297062496   T   T   T
  0.5081020219566584  0.9884487741797298  0.5683603102130483   T   T   T
  0.8333333333333357  0.8333333333333357  0.3817991009012260   F   F   F
  0.7467986629217386  0.0984977779045571  0.6303434432194281   T   T   T
  0.5585737829433882  0.3624116797601731  0.6657633829842922   T   T   T
 -0.1207664742851312  0.6961037133854869  0.6153218149194244   T   T   T
  0.3292371708180251  0.3201667305291072  0.6323185809936414   T   T   T
  0.0387298895458166  0.8512116217833365  0.6363339358501432   T   T   T
  0.3172174099969216  0.6244391610304612  0.6243798141759451   T   T   T
  0.1109973960613444  0.0673461248298892  0.6290758633792085   T   T   T
  0.5282302399044106  0.0431119101974462  0.6402822862590721   T   T   T
  0.7531038143739960  0.7385787575110135  0.5567995488133913   T   T   T
  0.1696525893121111  0.9167369338428782  0.4721201241614462   T   T   T
  0.6715938113896832  0.6634781354325671  0.4704189789162613   T   T   T
  0.1685416278489396  0.6659691417245968  0.4735010260227233   T   T   T
  0.3333333333333357  0.5833333333333357  0.3817991009012260   F   F   F
  0.3333333333333357  0.3333333333333357  0.3817991009012260   F   F   F
  0.1692593918447307  0.1668111049092466  0.4777275536047287   T   T   T
  0.0008518805834275  0.7566020882501827  0.5812348213455228   T   T   T
  0.9277439081805992  0.9106061639097881  0.4734637825500037   T   T   T
  0.0833333333333357  0.8333333333333357  0.3817991009012260   F   F   F
  0.9214911298534391  0.6662009413140239  0.4729904447558074   T   T   T
  0.6712507634567159  0.9126944235582266  0.4718902486236473   T   T   T
  0.9215400147134375  0.4157355317850461  0.4769020051512209   T   T   T
 -0.0561854193503028  0.0512108975673201  0.6334196146085597   T   T   T
  0.5833333333333357  0.3333333333333357  0.3817991009012260   F   F   F
  0.3333333333333357  0.8333333333333357  0.3817991009012260   F   F   F
  0.0833333333333357  0.0833333333333357  0.3817991009012260   F   F   F
  0.5833333333333357  0.8333333333333357  0.3817991009012260   F   F   F
  0.7525363831439074  0.4934596247997767  0.5628745832527813   T   T   T
  0.5833333333333357  0.5833333333333357  0.3817991009012260   F   F   F
  0.6700783591398108  0.4173884021522150  0.4752209291503198   T   T   T
  0.4200671552990782  0.9171730625226944  0.4770444696611423   T   T   T
  0.5332030190253449  0.2132702247371890  0.6438413679511747   T   T   T
  0.8333333333333357  0.5833333333333357  0.3817991009012260   F   F   F
 
  0.00000000E+00  0.00000000E+00  0.00000000E+00
  0.00000000E+00  0.00000000E+00  0.00000000E+00
  0.00000000E+00  0.00000000E+00  0.00000000E+00
  0.00000000E+00  0.00000000E+00  0.00000000E+00
  0.00000000E+00  0.00000000E+00  0.00000000E+00
  0.00000000E+00  0.00000000E+00  0.00000000E+00
  0.00000000E+00  0.00000000E+00  0.00000000E+00
  0.00000000E+00  0.00000000E+00  0.00000000E+00
  0.00000000E+00  0.00000000E+00  0.00000000E+00
  0.00000000E+00  0.00000000E+00  0.00000000E+00
  0.00000000E+00  0.00000000E+00  0.00000000E+00
  0.00000000E+00  0.00000000E+00  0.00000000E+00
  0.00000000E+00  0.00000000E+00  0.00000000E+00
  0.00000000E+00  0.00000000E+00  0.00000000E+00
  0.00000000E+00  0.00000000E+00  0.00000000E+00
  0.00000000E+00  0.00000000E+00  0.00000000E+00
  0.00000000E+00  0.00000000E+00  0.00000000E+00
  0.00000000E+00  0.00000000E+00  0.00000000E+00
  0.00000000E+00  0.00000000E+00  0.00000000E+00
  0.00000000E+00  0.00000000E+00  0.00000000E+00
  0.00000000E+00  0.00000000E+00  0.00000000E+00
  0.00000000E+00  0.00000000E+00  0.00000000E+00
  0.00000000E+00  0.00000000E+00  0.00000000E+00
  0.00000000E+00  0.00000000E+00  0.00000000E+00
  0.00000000E+00  0.00000000E+00  0.00000000E+00
  0.00000000E+00  0.00000000E+00  0.00000000E+00
  0.00000000E+00  0.00000000E+00  0.00000000E+00
  0.00000000E+00  0.00000000E+00  0.00000000E+00
  0.00000000E+00  0.00000000E+00  0.00000000E+00
  0.00000000E+00  0.00000000E+00  0.00000000E+00
  0.00000000E+00  0.00000000E+00  0.00000000E+00
  0.00000000E+00  0.00000000E+00  0.00000000E+00
  0.00000000E+00  0.00000000E+00  0.00000000E+00
  0.00000000E+00  0.00000000E+00  0.00000000E+00
  0.00000000E+00  0.00000000E+00  0.00000000E+00
  0.00000000E+00  0.00000000E+00  0.00000000E+00
  0.00000000E+00  0.00000000E+00  0.00000000E+00
  0.00000000E+00  0.00000000E+00  0.00000000E+00
  0.00000000E+00  0.00000000E+00  0.00000000E+00
  0.00000000E+00  0.00000000E+00  0.00000000E+00
  0.00000000E+00  0.00000000E+00  0.00000000E+00
  0.00000000E+00  0.00000000E+00  0.00000000E+00
  0.00000000E+00  0.00000000E+00  0.00000000E+00
  0.00000000E+00  0.00000000E+00  0.00000000E+00
  0.00000000E+00  0.00000000E+00  0.00000000E+00
  0.00000000E+00  0.00000000E+00  0.00000000E+00
  0.00000000E+00  0.00000000E+00  0.00000000E+00
  0.00000000E+00  0.00000000E+00  0.00000000E+00
  0.00000000E+00  0.00000000E+00  0.00000000E+00
  0.00000000E+00  0.00000000E+00  0.00000000E+00
  0.00000000E+00  0.00000000E+00  0.00000000E+00
  0.00000000E+00  0.00000000E+00  0.00000000E+00
  0.00000000E+00  0.00000000E+00  0.00000000E+00
  0.00000000E+00  0.00000000E+00  0.00000000E+00
  0.00000000E+00  0.00000000E+00  0.00000000E+00
  0.00000000E+00  0.00000000E+00  0.00000000E+00
