Au  O Pd                                
   1.00000000000000     
    11.0025815152626798    0.0000000000000000    0.0000000000000000
     5.5012907576313399    9.5285150994265617    0.0000000000000000
     0.0000000000000000    0.0000000000000000   26.1917850942952910
   Au   O    Pd
    24     8    24
Selective dynamics
Direct
  0.3333333333333357  0.8333333333333357  0.3817991009012260   F   F   F
  0.4147938380971217  0.4152230822161395  0.4700202281277655   T   T   T
  0.4451162772340483  0.5243876166488280  0.5610381957601213   T   T   T
  0.9146595379445983  0.1661194338563786  0.4766629573986105   T   T   T
 -0.0027401799454772  0.0354616506903991  0.6310672379977486   T   T   T
  0.8333333333333357  0.8333333333333357  0.3817991009012260   F   F   F
  0.7301874085533117  0.5284562392977519  0.5599675071393341   T   T   T
  0.6654448217886010  0.6747637340566190  0.4713679869469085   T   T   T
 -0.0026208489942309  0.2623304371091562  0.5700708767079035   T   T   T
  0.7743197491047095  0.7171710736424678  0.6004587318891835   T   T   T
  0.0833333333333357  0.5833333333333357  0.3817991009012260   F   F   F
  0.0201583010319960  0.5120173765404942  0.5677743947663847   T   T   T
  0.7185444485219556  0.2799257087877301  0.5696372213242124   T   T   T
  0.0833333333333357  0.8333333333333357  0.3817991009012260   F   F   F
  0.1641078409529122  0.9116569794924527  0.4844139864993626   T   T   T
  0.0317967125263784  0.7686894934138923  0.5607792282890446   T   T   T
  0.7440812430459185  0.0093045739535627  0.5636259741380483   T   T   T
  0.3333333333333357  0.0833333333333357  0.3817991009012260   F   F   F
  0.1635699926596704  0.1657648701710221  0.4777460009030028   T   T   T
  0.8333333333333357  0.0833333333333357  0.3817991009012260   F   F   F
  0.4924667095643466  0.0025802927847632  0.5614174993620976   T   T   T
  0.4707572079733682  0.7585841519025205  0.5608814133859198   T   T   T
  0.1664042332972468  0.4167908434994670  0.4739686459785373   T   T   T
  0.6647774190561312  0.4181657669513084  0.4720990145787383   T   T   T
  0.3453519951581315  0.3006700360256463  0.6171512732573438   T   T   T
  0.4056168095017741  0.5332940049071199  0.6417530719552221   T   T   T
  0.1382377880105925  0.7045534803205201  0.6334270669639481   T   T   T
  0.8539872997145368  0.8444519146007237  0.6154445059122642   T   T   T
  0.7936888783362532  0.1159485420476804  0.6256607421277449   T   T   T
  0.5578885258255895  0.8402252814222538  0.6173366016203520   T   T   T
  0.8118932945783204  0.3745033194191421  0.6161812599379107   T   T   T
  0.2041134943107480  0.9436388169746105  0.6419326710648470   T   T   T
  0.4133881293157287  0.6687008791732020  0.4719944184021950   T   T   T
  0.5833333333333357  0.5833333333333357  0.3817991009012260   F   F   F
  0.3333333333333357  0.5833333333333357  0.3817991009012260   F   F   F
  0.5833333333333357  0.3333333333333357  0.3817991009012260   F   F   F
  0.4167911340099070  0.1631315284516833  0.4722623774365566   T   T   T
  0.5833333333333357  0.0833333333333357  0.3817991009012260   F   F   F
  0.1704741375459027  0.6652079665726823  0.4748499881902891   T   T   T
  0.3042588755512209  0.7401336892544078  0.6389703690044860   T   T   T
  0.2456202214514054  0.2505643301525359  0.5654885633291384   T   T   T
  0.3333333333333357  0.3333333333333357  0.3817991009012260   F   F   F
  0.5833333333333357  0.8333333333333357  0.3817991009012260   F   F   F
  0.4128116231576259  0.9186419345568688  0.4715167636573022   T   T   T
  0.2299239632901027  0.0055286841450066  0.5717816948742539   T   T   T
  0.6646779053336914  0.1671445919702937  0.4763718506770140   T   T   T
  0.9159037550166238  0.9157194040861808  0.4739755711034678   T   T   T
  0.8333333333333357  0.3333333333333357  0.3817991009012260   F   F   F
  0.9168579547818355  0.6706604747813965  0.4770631572816767   T   T   T
  0.8333333333333357  0.5833333333333357  0.3817991009012260   F   F   F
  0.9159285343911961  0.4208144105110254  0.4721221832907008   T   T   T
  0.0833333333333357  0.3333333333333357  0.3817991009012260   F   F   F
  0.6688392420016127  0.9190843866690550  0.4745213969615173   T   T   T
  0.2390583832858861  0.5012371390999593  0.6226448612217079   T   T   T
  0.4860487635906763  0.2568314677950410  0.5611059147072309   T   T   T
  0.0833333333333357  0.0833333333333357  0.3817991009012260   F   F   F
 
  0.00000000E+00  0.00000000E+00  0.00000000E+00
  0.00000000E+00  0.00000000E+00  0.00000000E+00
  0.00000000E+00  0.00000000E+00  0.00000000E+00
  0.00000000E+00  0.00000000E+00  0.00000000E+00
  0.00000000E+00  0.00000000E+00  0.00000000E+00
  0.00000000E+00  0.00000000E+00  0.00000000E+00
  0.00000000E+00  0.00000000E+00  0.00000000E+00
  0.00000000E+00  0.00000000E+00  0.00000000E+00
  0.00000000E+00  0.00000000E+00  0.00000000E+00
  0.00000000E+00  0.00000000E+00  0.00000000E+00
  0.00000000E+00  0.00000000E+00  0.00000000E+00
  0.00000000E+00  0.00000000E+00  0.00000000E+00
  0.00000000E+00  0.00000000E+00  0.00000000E+00
  0.00000000E+00  0.00000000E+00  0.00000000E+00
  0.00000000E+00  0.00000000E+00  0.00000000E+00
  0.00000000E+00  0.00000000E+00  0.00000000E+00
  0.00000000E+00  0.00000000E+00  0.00000000E+00
  0.00000000E+00  0.00000000E+00  0.00000000E+00
  0.00000000E+00  0.00000000E+00  0.00000000E+00
  0.00000000E+00  0.00000000E+00  0.00000000E+00
  0.00000000E+00  0.00000000E+00  0.00000000E+00
  0.00000000E+00  0.00000000E+00  0.00000000E+00
  0.00000000E+00  0.00000000E+00  0.00000000E+00
  0.00000000E+00  0.00000000E+00  0.00000000E+00
  0.00000000E+00  0.00000000E+00  0.00000000E+00
  0.00000000E+00  0.00000000E+00  0.00000000E+00
  0.00000000E+00  0.00000000E+00  0.00000000E+00
  0.00000000E+00  0.00000000E+00  0.00000000E+00
  0.00000000E+00  0.00000000E+00  0.00000000E+00
  0.00000000E+00  0.00000000E+00  0.00000000E+00
  0.00000000E+00  0.00000000E+00  0.00000000E+00
  0.00000000E+00  0.00000000E+00  0.00000000E+00
  0.00000000E+00  0.00000000E+00  0.00000000E+00
  0.00000000E+00  0.00000000E+00  0.00000000E+00
  0.00000000E+00  0.00000000E+00  0.00000000E+00
  0.00000000E+00  0.00000000E+00  0.00000000E+00
  0.00000000E+00  0.00000000E+00  0.00000000E+00
  0.00000000E+00  0.00000000E+00  0.00000000E+00
  0.00000000E+00  0.00000000E+00  0.00000000E+00
  0.00000000E+00  0.00000000E+00  0.00000000E+00
  0.00000000E+00  0.00000000E+00  0.00000000E+00
  0.00000000E+00  0.00000000E+00  0.00000000E+00
  0.00000000E+00  0.00000000E+00  0.00000000E+00
  0.00000000E+00  0.00000000E+00  0.00000000E+00
  0.00000000E+00  0.00000000E+00  0.00000000E+00
  0.00000000E+00  0.00000000E+00  0.00000000E+00
  0.00000000E+00  0.00000000E+00  0.00000000E+00
  0.00000000E+00  0.00000000E+00  0.00000000E+00
  0.00000000E+00  0.00000000E+00  0.00000000E+00
  0.00000000E+00  0.00000000E+00  0.00000000E+00
  0.00000000E+00  0.00000000E+00  0.00000000E+00
  0.00000000E+00  0.00000000E+00  0.00000000E+00
  0.00000000E+00  0.00000000E+00  0.00000000E+00
  0.00000000E+00  0.00000000E+00  0.00000000E+00
  0.00000000E+00  0.00000000E+00  0.00000000E+00
  0.00000000E+00  0.00000000E+00  0.00000000E+00
