Au  O Pd                                
   1.00000000000000     
    11.0025815152626798    0.0000000000000000    0.0000000000000000
     5.5012907576313399    9.5285150994265617    0.0000000000000000
     0.0000000000000000    0.0000000000000000   26.1917850942952910
   Au   O    Pd
    24     8    24
Selective dynamics
Direct
  0.3333333333333357  0.8333333333333357  0.3817991009012260   F   F   F
  0.4118953508822170  0.4120730587920787  0.4688842909868803   T   T   T
  0.4867163260942032  0.5070894645966024  0.5561367704526039   T   T   T
  0.9204024251007727  0.1592703945083023  0.4734907480522905   T   T   T
  0.0211087300957149  0.0372354593238333  0.6293408573604765   T   T   T
  0.8333333333333357  0.8333333333333357  0.3817991009012260   F   F   F
  0.7432538861004292  0.5078039119563130  0.5590145779116339   T   T   T
  0.6685373727324357  0.6651337339645294  0.4710511087545068   T   T   T
  0.0118101857051664  0.2685605097411172  0.5953582925672704   T   T   T
  0.7665164927672639  0.7101480560553514  0.5981484028751611   T   T   T
  0.0833333333333357  0.5833333333333357  0.3817991009012260   F   F   F
  0.0050200571237871  0.5059612972964944  0.5627161291059875   T   T   T
  0.7488379084706093  0.2544799850915352  0.5694737532365916   T   T   T
  0.0833333333333357  0.8333333333333357  0.3817991009012260   F   F   F
  0.1696859219016572  0.9080995908927959  0.4936634879372107   T   T   T
  0.0238936816142551  0.7527784818024906  0.5641027148646869   T   T   T
  0.7526223695135257 -0.0039363835259877  0.5615978635448683   T   T   T
  0.3333333333333357  0.0833333333333357  0.3817991009012260   F   F   F
  0.1651780962404701  0.1619747371160487  0.4831482916161361   T   T   T
  0.8333333333333357  0.0833333333333357  0.3817991009012260   F   F   F
  0.4944188469648879  0.0045723930985972  0.5591411319199207   T   T   T
  0.4766658181318273  0.7574150273189043  0.5589333995795055   T   T   T
  0.1636749679546002  0.4149963225489764  0.4726602959769998   T   T   T
  0.6661524416481701  0.4098982012028683  0.4725538330006163   T   T   T
  0.3522035176268729  0.3088286361270030  0.6156136869829174   T   T   T
  0.3670195910558872  0.5616694558122951  0.6276323862683848   T   T   T
  0.0927004366383996  0.8167094119856840  0.6286367816026974   T   T   T
  0.8404970481745975  0.8386774427501688  0.6173223605393403   T   T   T
  0.8120901770411755  0.0947606132939910  0.6258461358538191   T   T   T
  0.5544644496798677  0.8389640452054888  0.6163900790913172   T   T   T
  0.8165507479358013  0.3828533188220428  0.6259488468788301   T   T   T
  0.2431123774789369  0.9550410159882355  0.6497130588651955   T   T   T
  0.4126087148404284  0.6688021883444101  0.4698011645027081   T   T   T
  0.5833333333333357  0.5833333333333357  0.3817991009012260   F   F   F
  0.3333333333333357  0.5833333333333357  0.3817991009012260   F   F   F
  0.5833333333333357  0.3333333333333357  0.3817991009012260   F   F   F
  0.4182083254313299  0.1619714049271230  0.4720397579294994   T   T   T
  0.5833333333333357  0.0833333333333357  0.3817991009012260   F   F   F
  0.1730827469880910  0.6636092463670280  0.4785412156503689   T   T   T
  0.3018827778775235  0.7535750214586576  0.6348341341324922   T   T   T
  0.2511456906238651  0.2554897005136020  0.5653730934890386   T   T   T
  0.3333333333333357  0.3333333333333357  0.3817991009012260   F   F   F
  0.5833333333333357  0.8333333333333357  0.3817991009012260   F   F   F
  0.4156525177418653  0.9157703515903103  0.4692242122986730   T   T   T
  0.2451755569594731  0.0099718127560060  0.5757838909039408   T   T   T
  0.6687307599806336  0.1603142837497687  0.4766321633004609   T   T   T
  0.9221959588613424  0.9110763772467476  0.4733625348962923   T   T   T
  0.8333333333333357  0.3333333333333357  0.3817991009012260   F   F   F
  0.9195387166521867  0.6681574298339832  0.4746748483844673   T   T   T
  0.8333333333333357  0.5833333333333357  0.3817991009012260   F   F   F
  0.9172425417545140  0.4128226090671531  0.4704526419325833   T   T   T
  0.0833333333333357  0.3333333333333357  0.3817991009012260   F   F   F
  0.6713447994518960  0.9119766395006336  0.4720128231566131   T   T   T
  0.2391317818125758  0.5063654958211714  0.5951759054627114   T   T   T
  0.4999720635962094  0.2492286695256213  0.5615085807101171   T   T   T
  0.0833333333333357  0.0833333333333357  0.3817991009012260   F   F   F
 
  0.00000000E+00  0.00000000E+00  0.00000000E+00
  0.00000000E+00  0.00000000E+00  0.00000000E+00
  0.00000000E+00  0.00000000E+00  0.00000000E+00
  0.00000000E+00  0.00000000E+00  0.00000000E+00
  0.00000000E+00  0.00000000E+00  0.00000000E+00
  0.00000000E+00  0.00000000E+00  0.00000000E+00
  0.00000000E+00  0.00000000E+00  0.00000000E+00
  0.00000000E+00  0.00000000E+00  0.00000000E+00
  0.00000000E+00  0.00000000E+00  0.00000000E+00
  0.00000000E+00  0.00000000E+00  0.00000000E+00
  0.00000000E+00  0.00000000E+00  0.00000000E+00
  0.00000000E+00  0.00000000E+00  0.00000000E+00
  0.00000000E+00  0.00000000E+00  0.00000000E+00
  0.00000000E+00  0.00000000E+00  0.00000000E+00
  0.00000000E+00  0.00000000E+00  0.00000000E+00
  0.00000000E+00  0.00000000E+00  0.00000000E+00
  0.00000000E+00  0.00000000E+00  0.00000000E+00
  0.00000000E+00  0.00000000E+00  0.00000000E+00
  0.00000000E+00  0.00000000E+00  0.00000000E+00
  0.00000000E+00  0.00000000E+00  0.00000000E+00
  0.00000000E+00  0.00000000E+00  0.00000000E+00
  0.00000000E+00  0.00000000E+00  0.00000000E+00
  0.00000000E+00  0.00000000E+00  0.00000000E+00
  0.00000000E+00  0.00000000E+00  0.00000000E+00
  0.00000000E+00  0.00000000E+00  0.00000000E+00
  0.00000000E+00  0.00000000E+00  0.00000000E+00
  0.00000000E+00  0.00000000E+00  0.00000000E+00
  0.00000000E+00  0.00000000E+00  0.00000000E+00
  0.00000000E+00  0.00000000E+00  0.00000000E+00
  0.00000000E+00  0.00000000E+00  0.00000000E+00
  0.00000000E+00  0.00000000E+00  0.00000000E+00
  0.00000000E+00  0.00000000E+00  0.00000000E+00
  0.00000000E+00  0.00000000E+00  0.00000000E+00
  0.00000000E+00  0.00000000E+00  0.00000000E+00
  0.00000000E+00  0.00000000E+00  0.00000000E+00
  0.00000000E+00  0.00000000E+00  0.00000000E+00
  0.00000000E+00  0.00000000E+00  0.00000000E+00
  0.00000000E+00  0.00000000E+00  0.00000000E+00
  0.00000000E+00  0.00000000E+00  0.00000000E+00
  0.00000000E+00  0.00000000E+00  0.00000000E+00
  0.00000000E+00  0.00000000E+00  0.00000000E+00
  0.00000000E+00  0.00000000E+00  0.00000000E+00
  0.00000000E+00  0.00000000E+00  0.00000000E+00
  0.00000000E+00  0.00000000E+00  0.00000000E+00
  0.00000000E+00  0.00000000E+00  0.00000000E+00
  0.00000000E+00  0.00000000E+00  0.00000000E+00
  0.00000000E+00  0.00000000E+00  0.00000000E+00
  0.00000000E+00  0.00000000E+00  0.00000000E+00
  0.00000000E+00  0.00000000E+00  0.00000000E+00
  0.00000000E+00  0.00000000E+00  0.00000000E+00
  0.00000000E+00  0.00000000E+00  0.00000000E+00
  0.00000000E+00  0.00000000E+00  0.00000000E+00
  0.00000000E+00  0.00000000E+00  0.00000000E+00
  0.00000000E+00  0.00000000E+00  0.00000000E+00
  0.00000000E+00  0.00000000E+00  0.00000000E+00
  0.00000000E+00  0.00000000E+00  0.00000000E+00
