Au Pd                                   
   1.00000000000000     
    11.0025815152626798    0.0000000000000000    0.0000000000000000
     5.5012907576313399    9.5285150994265617    0.0000000000000000
     0.0000000000000000    0.0000000000000000   24.4917850942952882
   Au   Pd
    24    24
Direct
  0.0803444193145663  0.0860883445793845  0.3952382428512921
  0.4964449462899859  0.5009511151754243  0.6039874729777087
  0.4144120598137486  0.4183690527206630  0.4987765904024132
  0.4999496384993634 -0.0036371540524968  0.6014093728122912
  0.4146858969712173  0.1659067200521023  0.4985257648850774
  0.1674084951039087  0.9175265434046580  0.4977991936412637
  0.3345738347295444  0.8325915849673874  0.3917233532533115
  0.6662040963135628  0.1674880687504173  0.5012593946587406
  0.7499916910800282 -0.0036167442629749  0.6063584812620636
  0.2509869342792375  0.2492975393834457  0.6006840326255046
  0.5864593966393287  0.5810714021895931  0.3963920870481638
  0.7482206515271976  0.2489344966341591  0.6072427156767274
  0.3349713494917572  0.3342710177662499  0.3941233583622396
  0.0019851277073820  0.2473019398164260  0.6037158388589625
  0.9165994625738224  0.1698289132500613  0.5008352368239002
  0.0032779357406608 -0.0047502036356249  0.6065491130379840
  0.7481713690550320  0.5017249552157661  0.6033928562064019
  0.3349154650003006  0.0835391010918991  0.3951604108436527
  0.0825693636390628  0.5855989905840063  0.3969972782130748
  0.4158040501527593  0.6675673250909340  0.4977105852569408
  0.0008919920010413  0.5013156800274249  0.6019663569251276
  0.6666010717650430  0.6672768601808332  0.4992149753489950
  0.9167456946753983  0.9158244702877503  0.5008646582795235
  0.9176243469673875  0.6656275568743069  0.4996219038880346
  0.8319960761880696  0.0840727247143888  0.4034049674558198
  0.4985601835842123  0.7497561799016106  0.5954322008455089
  0.4162062805193307  0.9182012719258111  0.4972982883694200
  0.8332692221176340  0.3347166517758204  0.4051034475742763
  0.8316719360031620  0.8357165300592467  0.4029934669962258
  0.5863377259244639  0.8338088214062115  0.4022346769410639
  0.6668537103952588  0.4180203012970101  0.5023128509481971
  0.8345205244867494  0.5829653737492706  0.4025697463430922
  0.2497110443704566  0.7491991168236244  0.5953574270456058
  0.5856274269237445  0.3328706762683686  0.4032601331485902
  0.5860144831616154  0.0820439407781415  0.4029457312285302
  0.6651363443471864  0.9174844967098064  0.5012852843158974
  0.2494176423742674  0.5010169780561402  0.5953537422373760
  0.1662372277440595  0.6654278806011047  0.4982521198260071
  0.3336892819351684  0.5843107409472654  0.3996824303508911
  0.1653011346878046  0.4160814741505681  0.4989267149889070
  0.2511186952921454 -0.0027580642927056  0.5944548365046501
  0.1657748367541820  0.1682208914922291  0.4986539872392085
  0.0024669971339221  0.7478096014985623  0.5973734512495019
  0.0822219178649703  0.8344401793117580  0.4014450339958566
  0.9177282268949578  0.4162877543154175  0.5020616646721077
  0.0814547004712311  0.3351365319602346  0.4041818880179091
  0.4988582206757715  0.2497964142476654  0.5981115143770409
  0.7499868708183001  0.7492759562106537  0.5977551211889212
 
  0.00000000E+00  0.00000000E+00  0.00000000E+00
  0.00000000E+00  0.00000000E+00  0.00000000E+00
  0.00000000E+00  0.00000000E+00  0.00000000E+00
  0.00000000E+00  0.00000000E+00  0.00000000E+00
  0.00000000E+00  0.00000000E+00  0.00000000E+00
  0.00000000E+00  0.00000000E+00  0.00000000E+00
  0.00000000E+00  0.00000000E+00  0.00000000E+00
  0.00000000E+00  0.00000000E+00  0.00000000E+00
  0.00000000E+00  0.00000000E+00  0.00000000E+00
  0.00000000E+00  0.00000000E+00  0.00000000E+00
  0.00000000E+00  0.00000000E+00  0.00000000E+00
  0.00000000E+00  0.00000000E+00  0.00000000E+00
  0.00000000E+00  0.00000000E+00  0.00000000E+00
  0.00000000E+00  0.00000000E+00  0.00000000E+00
  0.00000000E+00  0.00000000E+00  0.00000000E+00
  0.00000000E+00  0.00000000E+00  0.00000000E+00
  0.00000000E+00  0.00000000E+00  0.00000000E+00
  0.00000000E+00  0.00000000E+00  0.00000000E+00
  0.00000000E+00  0.00000000E+00  0.00000000E+00
  0.00000000E+00  0.00000000E+00  0.00000000E+00
  0.00000000E+00  0.00000000E+00  0.00000000E+00
  0.00000000E+00  0.00000000E+00  0.00000000E+00
  0.00000000E+00  0.00000000E+00  0.00000000E+00
  0.00000000E+00  0.00000000E+00  0.00000000E+00
  0.00000000E+00  0.00000000E+00  0.00000000E+00
  0.00000000E+00  0.00000000E+00  0.00000000E+00
  0.00000000E+00  0.00000000E+00  0.00000000E+00
  0.00000000E+00  0.00000000E+00  0.00000000E+00
  0.00000000E+00  0.00000000E+00  0.00000000E+00
  0.00000000E+00  0.00000000E+00  0.00000000E+00
  0.00000000E+00  0.00000000E+00  0.00000000E+00
  0.00000000E+00  0.00000000E+00  0.00000000E+00
  0.00000000E+00  0.00000000E+00  0.00000000E+00
  0.00000000E+00  0.00000000E+00  0.00000000E+00
  0.00000000E+00  0.00000000E+00  0.00000000E+00
  0.00000000E+00  0.00000000E+00  0.00000000E+00
  0.00000000E+00  0.00000000E+00  0.00000000E+00
  0.00000000E+00  0.00000000E+00  0.00000000E+00
  0.00000000E+00  0.00000000E+00  0.00000000E+00
  0.00000000E+00  0.00000000E+00  0.00000000E+00
  0.00000000E+00  0.00000000E+00  0.00000000E+00
  0.00000000E+00  0.00000000E+00  0.00000000E+00
  0.00000000E+00  0.00000000E+00  0.00000000E+00
  0.00000000E+00  0.00000000E+00  0.00000000E+00
  0.00000000E+00  0.00000000E+00  0.00000000E+00
  0.00000000E+00  0.00000000E+00  0.00000000E+00
  0.00000000E+00  0.00000000E+00  0.00000000E+00
  0.00000000E+00  0.00000000E+00  0.00000000E+00
