Au  O Pd                                
   1.00000000000000     
    11.0025815152626798    0.0000000000000000    0.0000000000000000
     5.5012907576313399    9.5285150994265617    0.0000000000000000
     0.0000000000000000    0.0000000000000000   26.1917850942952910
   Au   O    Pd
    24     8    24
Selective dynamics
Direct
  0.0833333333333357  0.0833333333333357  0.3817991009012260   F   F   F
  0.3333333333333357  0.8333333333333357  0.3817991009012260   F   F   F
  0.9121014170867313  0.1708400925400301  0.4775126167299414   T   T   T
  0.0140614983998634 -0.0059702783372695  0.5704522928089161   T   T   T
  0.6652883140749791  0.9138919749322193  0.4835025325769702   T   T   T
  0.0833333333333357  0.3333333333333357  0.3817991009012260   F   F   F
  0.8333333333333357  0.8333333333333357  0.3817991009012260   F   F   F
  0.7750941130788508  0.2775600344708240  0.6021879551001807   T   T   T
  0.9171071450546219  0.6627340509253418  0.4737402931571747   T   T   T
  0.7584021366204242  0.0005109553300429  0.5676877156380360   T   T   T
  0.8333333333333357  0.0833333333333357  0.3817991009012260   F   F   F
  0.9168380445935661  0.9165504940719952  0.4770254268746264   T   T   T
  0.5833333333333357  0.8333333333333357  0.3817991009012260   F   F   F
  0.5833333333333357  0.5833333333333357  0.3817991009012260   F   F   F
  0.3333333333333357  0.0833333333333357  0.3817991009012260   F   F   F
  0.1714755144314768  0.1649795889243644  0.4761172662233645   T   T   T
  0.4231643869555273  0.4114715635774869  0.4823550437017289   T   T   T
  0.3333333333333357  0.3333333333333357  0.3817991009012260   F   F   F
  0.2482948721747001  0.2556041005919160  0.5759283308347172   T   T   T
  0.4959094316860319 -0.0077568628250579  0.5778212974773564   T   T   T
  0.3333333333333357  0.5833333333333357  0.3817991009012260   F   F   F
  0.1690894702777831  0.6632697247635876  0.4745001021197530   T   T   T
  0.2448323532736691  0.4985986907850221  0.5736408238257220   T   T   T
  0.5833333333333357  0.0833333333333357  0.3817991009012260   F   F   F
  0.9362097441595642  0.7522546234950910  0.6384799504303454   T   T   T
  0.1537913621481298  0.1455412801209461  0.6156786182346794   T   T   T
  0.3254414099121452  0.6130223777191439  0.6159012058053965   T   T   T
  0.5656296249654691  0.8015613287069976  0.6224354237499025   T   T   T
  0.5879932718196195  0.0804958200550387  0.6251602941446748   T   T   T
  0.8425152253129915  0.5583930236349806  0.6155838328817735   T   T   T
  0.5716087321875788  0.3473845243179555  0.6254179340698217   T   T   T
  0.8744110775991782  0.0784086821888393  0.6302462180808843   T   T   T
  0.4189129753559268  0.9148272146286025  0.4752903354856937   T   T   T
  0.4997171429530656  0.2521569486449144  0.5810712575610043   T   T   T
  0.2566703661408899 -0.0062197001842795  0.5649383863750533   T   T   T
  0.4212003580600067  0.1638585930099541  0.4873713183204402   T   T   T
  0.4223791101610630  0.6634613997936074  0.4755231964976181   T   T   T
  0.5085156598092075  0.5079131259697279  0.5775985773863364   T   T   T
  0.7606372013542655  0.7623802159069016  0.6273124410393253   T   T   T
 -0.0013896088522509  0.7455169969154820  0.5693229233719141   T   T   T
  0.5077823682632844  0.7417939411319348  0.5599455585942742   T   T   T
  0.1677198689068893  0.9152781892053816  0.4762518280671111   T   T   T
  0.0833333333333357  0.8333333333333357  0.3817991009012260   F   F   F
  0.6658714746716992  0.1673362159151513  0.4762837280873625   T   T   T
 -0.0047873377955318  0.5056080905020596  0.5641556958679651   T   T   T
  0.0833333333333357  0.5833333333333357  0.3817991009012260   F   F   F
  0.8333333333333357  0.3333333333333357  0.3817991009012260   F   F   F
  0.6667525565630289  0.4170717070321114  0.4796021011520254   T   T   T
  0.8333333333333357  0.5833333333333357  0.3817991009012260   F   F   F
  0.6689542228676691  0.6650571711647613  0.4714309220937233   T   T   T
  0.7521613719055484  0.5069332743289500  0.5593011998376864   T   T   T
  0.0009844889777951  0.2552393056542502  0.5642293371290913   T   T   T
  0.9163083968391065  0.4161670675217305  0.4716175480002608   T   T   T
  0.2519477646016217  0.7514570454474430  0.5612297319432460   T   T   T
  0.5833333333333357  0.3333333333333357  0.3817991009012260   F   F   F
  0.1707434519578368  0.4137067629468449  0.4800617662326665   T   T   T
 
  0.00000000E+00  0.00000000E+00  0.00000000E+00
  0.00000000E+00  0.00000000E+00  0.00000000E+00
  0.00000000E+00  0.00000000E+00  0.00000000E+00
  0.00000000E+00  0.00000000E+00  0.00000000E+00
  0.00000000E+00  0.00000000E+00  0.00000000E+00
  0.00000000E+00  0.00000000E+00  0.00000000E+00
  0.00000000E+00  0.00000000E+00  0.00000000E+00
  0.00000000E+00  0.00000000E+00  0.00000000E+00
  0.00000000E+00  0.00000000E+00  0.00000000E+00
  0.00000000E+00  0.00000000E+00  0.00000000E+00
  0.00000000E+00  0.00000000E+00  0.00000000E+00
  0.00000000E+00  0.00000000E+00  0.00000000E+00
  0.00000000E+00  0.00000000E+00  0.00000000E+00
  0.00000000E+00  0.00000000E+00  0.00000000E+00
  0.00000000E+00  0.00000000E+00  0.00000000E+00
  0.00000000E+00  0.00000000E+00  0.00000000E+00
  0.00000000E+00  0.00000000E+00  0.00000000E+00
  0.00000000E+00  0.00000000E+00  0.00000000E+00
  0.00000000E+00  0.00000000E+00  0.00000000E+00
  0.00000000E+00  0.00000000E+00  0.00000000E+00
  0.00000000E+00  0.00000000E+00  0.00000000E+00
  0.00000000E+00  0.00000000E+00  0.00000000E+00
  0.00000000E+00  0.00000000E+00  0.00000000E+00
  0.00000000E+00  0.00000000E+00  0.00000000E+00
  0.00000000E+00  0.00000000E+00  0.00000000E+00
  0.00000000E+00  0.00000000E+00  0.00000000E+00
  0.00000000E+00  0.00000000E+00  0.00000000E+00
  0.00000000E+00  0.00000000E+00  0.00000000E+00
  0.00000000E+00  0.00000000E+00  0.00000000E+00
  0.00000000E+00  0.00000000E+00  0.00000000E+00
  0.00000000E+00  0.00000000E+00  0.00000000E+00
  0.00000000E+00  0.00000000E+00  0.00000000E+00
  0.00000000E+00  0.00000000E+00  0.00000000E+00
  0.00000000E+00  0.00000000E+00  0.00000000E+00
  0.00000000E+00  0.00000000E+00  0.00000000E+00
  0.00000000E+00  0.00000000E+00  0.00000000E+00
  0.00000000E+00  0.00000000E+00  0.00000000E+00
  0.00000000E+00  0.00000000E+00  0.00000000E+00
  0.00000000E+00  0.00000000E+00  0.00000000E+00
  0.00000000E+00  0.00000000E+00  0.00000000E+00
  0.00000000E+00  0.00000000E+00  0.00000000E+00
  0.00000000E+00  0.00000000E+00  0.00000000E+00
  0.00000000E+00  0.00000000E+00  0.00000000E+00
  0.00000000E+00  0.00000000E+00  0.00000000E+00
  0.00000000E+00  0.00000000E+00  0.00000000E+00
  0.00000000E+00  0.00000000E+00  0.00000000E+00
  0.00000000E+00  0.00000000E+00  0.00000000E+00
  0.00000000E+00  0.00000000E+00  0.00000000E+00
  0.00000000E+00  0.00000000E+00  0.00000000E+00
  0.00000000E+00  0.00000000E+00  0.00000000E+00
  0.00000000E+00  0.00000000E+00  0.00000000E+00
  0.00000000E+00  0.00000000E+00  0.00000000E+00
  0.00000000E+00  0.00000000E+00  0.00000000E+00
  0.00000000E+00  0.00000000E+00  0.00000000E+00
  0.00000000E+00  0.00000000E+00  0.00000000E+00
  0.00000000E+00  0.00000000E+00  0.00000000E+00
