Au Pd                                   
   1.00000000000000     
    11.0025815152626798    0.0000000000000000    0.0000000000000000
     5.5012907576313399    9.5285150994265617    0.0000000000000000
     0.0000000000000000    0.0000000000000000   24.4917850942952882
   Au   Pd
    24    24
Direct
  0.0806784812902058  0.0832867031788902  0.3965491806195746
  0.8330630287982197  0.8335833766852907  0.3992946396250176
  0.7494664860184012  0.4984119518948269  0.6032571008918487
  0.8304182071298878  0.5824427529925422  0.3990057788528367
  0.7479380882150911  0.0031449759773635  0.6047650563291628
  0.6678954347643304  0.1677403049929280  0.4995013484581093
  0.4967097726781738  0.7531390260071549  0.6016265546822814
  0.4983871095440841  0.4987139738612208  0.6019557893591533
  0.4167729480854141  0.4180943286408290  0.4987636071781075
  0.5859668210242395  0.3339858269812770  0.3942859885578290
  0.4169573144760195  0.1650810673695095  0.4986802177772630
  0.5832767510145923  0.0826367733534686  0.3952818090448993
  0.1687784893286118  0.9169037775440095  0.4996400815406057
  0.1667303296339907  0.6660107373493034  0.4999128527293308
  0.3343732321298983  0.5850194066357407  0.3955265664322134
  0.7487719517885991  0.7520196550039988  0.6007525727471303
  0.0027161590449863  0.7496426330120181  0.6043625484981782
  0.0018689178646103  0.2457713725271201  0.6049803836045946
  0.1667487791769432  0.1675852219735918  0.5002454141977341
  0.9144982044067639  0.4187945207353957  0.5002973910134617
  0.0042373571699721  0.4972069827500898  0.6021403555327071
  0.3329105026491913  0.0818470131525052  0.3945634108056112
  0.0843009229792941  0.5806269748034801  0.3983068111058792
  0.9157296213016686  0.9176264126543181  0.5011779246400142
  0.8335276320915145  0.0834902006684713  0.4028578690528665
  0.8331093130100196  0.3326542962400554  0.4036082498437208
  0.1650693168458976  0.4181492984584260  0.5000934431143258
  0.7500308322247986  0.2490102190026768  0.5966101235825179
  0.0835069929798538  0.3323591503277934  0.4027298843261204
  0.6656357449003516  0.6684606741521826  0.5012529290481168
  0.0008764507706647 -0.0002195719614229  0.5981099567833672
  0.9165581821269277  0.1687593198043403  0.5006331184205544
  0.6662983346360563  0.4189445875447702  0.5003192632520451
  0.4188854310602715  0.9147406259673621  0.5000888793905188
  0.4200365757674172  0.6664365460722241  0.5006784314072733
  0.9148346747157421  0.6674163332479253  0.5001773376528978
  0.3332283404882862  0.3330166452606275  0.4012226459822406
  0.5825600130917087  0.5843683244929584  0.4049630413907015
  0.4986925920580842  0.2497032859115670  0.5966460647659845
  0.0839621788462822  0.8331242789985750  0.4022420608402449
  0.4977408087164249  0.0024918583948174  0.5965792198633003
  0.6664927435079941  0.9152919898389397  0.5002892740998802
  0.3347731108582837  0.8323368954057249  0.4029112155375515
  0.2509688133656205  0.4985276460783225  0.5972152459203197
  0.2497746192880748 -0.0000532634995419  0.5971020885494239
  0.2531052478926777  0.2482476763470536  0.5973442953414199
  0.5814858196584222  0.8326651875083402  0.4045505072385674
  0.2496513205854372  0.7507620256609380  0.5969014703724979
 
  0.00000000E+00  0.00000000E+00  0.00000000E+00
  0.00000000E+00  0.00000000E+00  0.00000000E+00
  0.00000000E+00  0.00000000E+00  0.00000000E+00
  0.00000000E+00  0.00000000E+00  0.00000000E+00
  0.00000000E+00  0.00000000E+00  0.00000000E+00
  0.00000000E+00  0.00000000E+00  0.00000000E+00
  0.00000000E+00  0.00000000E+00  0.00000000E+00
  0.00000000E+00  0.00000000E+00  0.00000000E+00
  0.00000000E+00  0.00000000E+00  0.00000000E+00
  0.00000000E+00  0.00000000E+00  0.00000000E+00
  0.00000000E+00  0.00000000E+00  0.00000000E+00
  0.00000000E+00  0.00000000E+00  0.00000000E+00
  0.00000000E+00  0.00000000E+00  0.00000000E+00
  0.00000000E+00  0.00000000E+00  0.00000000E+00
  0.00000000E+00  0.00000000E+00  0.00000000E+00
  0.00000000E+00  0.00000000E+00  0.00000000E+00
  0.00000000E+00  0.00000000E+00  0.00000000E+00
  0.00000000E+00  0.00000000E+00  0.00000000E+00
  0.00000000E+00  0.00000000E+00  0.00000000E+00
  0.00000000E+00  0.00000000E+00  0.00000000E+00
  0.00000000E+00  0.00000000E+00  0.00000000E+00
  0.00000000E+00  0.00000000E+00  0.00000000E+00
  0.00000000E+00  0.00000000E+00  0.00000000E+00
  0.00000000E+00  0.00000000E+00  0.00000000E+00
  0.00000000E+00  0.00000000E+00  0.00000000E+00
  0.00000000E+00  0.00000000E+00  0.00000000E+00
  0.00000000E+00  0.00000000E+00  0.00000000E+00
  0.00000000E+00  0.00000000E+00  0.00000000E+00
  0.00000000E+00  0.00000000E+00  0.00000000E+00
  0.00000000E+00  0.00000000E+00  0.00000000E+00
  0.00000000E+00  0.00000000E+00  0.00000000E+00
  0.00000000E+00  0.00000000E+00  0.00000000E+00
  0.00000000E+00  0.00000000E+00  0.00000000E+00
  0.00000000E+00  0.00000000E+00  0.00000000E+00
  0.00000000E+00  0.00000000E+00  0.00000000E+00
  0.00000000E+00  0.00000000E+00  0.00000000E+00
  0.00000000E+00  0.00000000E+00  0.00000000E+00
  0.00000000E+00  0.00000000E+00  0.00000000E+00
  0.00000000E+00  0.00000000E+00  0.00000000E+00
  0.00000000E+00  0.00000000E+00  0.00000000E+00
  0.00000000E+00  0.00000000E+00  0.00000000E+00
  0.00000000E+00  0.00000000E+00  0.00000000E+00
  0.00000000E+00  0.00000000E+00  0.00000000E+00
  0.00000000E+00  0.00000000E+00  0.00000000E+00
  0.00000000E+00  0.00000000E+00  0.00000000E+00
  0.00000000E+00  0.00000000E+00  0.00000000E+00
  0.00000000E+00  0.00000000E+00  0.00000000E+00
  0.00000000E+00  0.00000000E+00  0.00000000E+00
