Au  O Pd                                
   1.00000000000000     
    11.0025815152626798    0.0000000000000000    0.0000000000000000
     5.5012907576313399    9.5285150994265617    0.0000000000000000
     0.0000000000000000    0.0000000000000000   26.1917850942952910
   Au   O    Pd
    24     8    24
Selective dynamics
Direct
  0.0833333333333357  0.0833333333333357  0.3817991009012260   F   F   F
  0.9171117937583106  0.6620652688724840  0.4774263618653767   T   T   T
  0.0833333333333357  0.5833333333333357  0.3817991009012260   F   F   F
  0.7532208476053708  0.4895489046665968  0.5647836349622540   T   T   T
  0.0833333333333357  0.3333333333333357  0.3817991009012260   F   F   F
  0.6679889099621068  0.9166650252145566  0.4737964350372483   T   T   T
  0.9163284164829333  0.9171585936803924  0.4729547476243873   T   T   T
  0.9822109219240746  0.7552626383460167  0.5685358439167268   T   T   T
  0.8333333333333357  0.5833333333333357  0.3817991009012260   F   F   F
  0.3333333333333357  0.0833333333333357  0.3817991009012260   F   F   F
  0.1682186299397738  0.1654837349206148  0.4764290850443209   T   T   T
  0.3333333333333357  0.5833333333333357  0.3817991009012260   F   F   F
  0.3333333333333357  0.3333333333333357  0.3817991009012260   F   F   F
  0.3333333333333357  0.8333333333333357  0.3817991009012260   F   F   F
  0.4177883147254252  0.1687192232614625  0.4773162924387847   T   T   T
  0.5077258407356087  0.9828809331171743  0.5657788197499167   T   T   T
  0.5833333333333357  0.3333333333333357  0.3817991009012260   F   F   F
  0.4961321819712126  0.2739376016432372  0.5652759884316207   T   T   T
  0.4224984183550513  0.6620397393241394  0.4791038850098435   T   T   T
  0.4858037474287789  0.5127379129284464  0.6226736804373055   T   T   T
  0.6681134362750306  0.6642977092331822  0.4763672952508252   T   T   T
  0.8333333333333357  0.0833333333333357  0.3817991009012260   F   F   F
  0.8333333333333357  0.3333333333333357  0.3817991009012260   F   F   F
  0.1694297247650632  0.6637699425408720  0.4761941566039880   T   T   T
  0.8554263813763648  0.5518185598273940  0.6225030960275636   T   T   T
  0.1679023887031848  0.4208382719325067  0.6173895929898907   T   T   T
  0.1737582643189162  0.1410130916201082  0.6150470463295071   T   T   T
  0.2784375241458039  0.6288539121628448  0.6260105663007985   T   T   T
  0.5541188509840695  0.1018052405636427  0.6188927697648782   T   T   T
  0.6892549679482654  0.3930864645886872  0.6256924481074448   T   T   T
  0.5735795203498075  0.7768703084217327  0.6304174170291620   T   T   T
  0.8598910447482824  0.0751205856859065  0.6146547086361848   T   T   T
  0.2478321374250821  0.7531672482286141  0.5654080667571615   T   T   T
  0.7479120613361985  0.7487105953636776  0.5991949676854148   T   T   T
  0.5833333333333357  0.0833333333333357  0.3817991009012260   F   F   F
  0.7593334392681751  0.2430201743261330  0.5688094407336921   T   T   T
  0.2417183535691550  0.5141760856167451  0.5721250584770603   T   T   T
  0.0833333333333357  0.8333333333333357  0.3817991009012260   F   F   F
  0.4184163553252075  0.4175597343282746  0.4777631825510691   T   T   T
  0.0107163979212392  0.2391779861945285  0.5660755729658633   T   T   T
  0.5833333333333357  0.5833333333333357  0.3817991009012260   F   F   F
  0.9183561416586666  0.4138801680465227  0.4766683428762074   T   T   T
  0.2675895388494277  0.2368423715303144  0.5805250794319535   T   T   T
  0.1691393069837336  0.4151205712885442  0.4837187288466972   T   T   T
  0.5833333333333357  0.8333333333333357  0.3817991009012260   F   F   F
  0.4202942687554404  0.9128316919204692  0.4752079818546288   T   T   T
  0.4972952919599334  0.7371968713998698  0.5707522169841415   T   T   T
  0.0045781825008018  0.9896323365107720  0.5613928783647079   T   T   T
  0.6683901326115307  0.1663619058229802  0.4756152769229786   T   T   T
  0.7453003081872691 -0.0042923938486477  0.5893665866653497   T   T   T
  0.2550265021959400  0.9903050620778119  0.5638362481752168   T   T   T
  0.9160901761849576  0.1668724568988945  0.4750013273836775   T   T   T
  0.6687325682656091  0.4117698121802639  0.4784527773616427   T   T   T
  0.1694359820187349  0.9130974096302557  0.4762385824469057   T   T   T
  0.0040757288422879  0.4917857878444836  0.5697502112419519   T   T   T
  0.8333333333333357  0.8333333333333357  0.3817991009012260   F   F   F
 
  0.00000000E+00  0.00000000E+00  0.00000000E+00
  0.00000000E+00  0.00000000E+00  0.00000000E+00
  0.00000000E+00  0.00000000E+00  0.00000000E+00
  0.00000000E+00  0.00000000E+00  0.00000000E+00
  0.00000000E+00  0.00000000E+00  0.00000000E+00
  0.00000000E+00  0.00000000E+00  0.00000000E+00
  0.00000000E+00  0.00000000E+00  0.00000000E+00
  0.00000000E+00  0.00000000E+00  0.00000000E+00
  0.00000000E+00  0.00000000E+00  0.00000000E+00
  0.00000000E+00  0.00000000E+00  0.00000000E+00
  0.00000000E+00  0.00000000E+00  0.00000000E+00
  0.00000000E+00  0.00000000E+00  0.00000000E+00
  0.00000000E+00  0.00000000E+00  0.00000000E+00
  0.00000000E+00  0.00000000E+00  0.00000000E+00
  0.00000000E+00  0.00000000E+00  0.00000000E+00
  0.00000000E+00  0.00000000E+00  0.00000000E+00
  0.00000000E+00  0.00000000E+00  0.00000000E+00
  0.00000000E+00  0.00000000E+00  0.00000000E+00
  0.00000000E+00  0.00000000E+00  0.00000000E+00
  0.00000000E+00  0.00000000E+00  0.00000000E+00
  0.00000000E+00  0.00000000E+00  0.00000000E+00
  0.00000000E+00  0.00000000E+00  0.00000000E+00
  0.00000000E+00  0.00000000E+00  0.00000000E+00
  0.00000000E+00  0.00000000E+00  0.00000000E+00
  0.00000000E+00  0.00000000E+00  0.00000000E+00
  0.00000000E+00  0.00000000E+00  0.00000000E+00
  0.00000000E+00  0.00000000E+00  0.00000000E+00
  0.00000000E+00  0.00000000E+00  0.00000000E+00
  0.00000000E+00  0.00000000E+00  0.00000000E+00
  0.00000000E+00  0.00000000E+00  0.00000000E+00
  0.00000000E+00  0.00000000E+00  0.00000000E+00
  0.00000000E+00  0.00000000E+00  0.00000000E+00
  0.00000000E+00  0.00000000E+00  0.00000000E+00
  0.00000000E+00  0.00000000E+00  0.00000000E+00
  0.00000000E+00  0.00000000E+00  0.00000000E+00
  0.00000000E+00  0.00000000E+00  0.00000000E+00
  0.00000000E+00  0.00000000E+00  0.00000000E+00
  0.00000000E+00  0.00000000E+00  0.00000000E+00
  0.00000000E+00  0.00000000E+00  0.00000000E+00
  0.00000000E+00  0.00000000E+00  0.00000000E+00
  0.00000000E+00  0.00000000E+00  0.00000000E+00
  0.00000000E+00  0.00000000E+00  0.00000000E+00
  0.00000000E+00  0.00000000E+00  0.00000000E+00
  0.00000000E+00  0.00000000E+00  0.00000000E+00
  0.00000000E+00  0.00000000E+00  0.00000000E+00
  0.00000000E+00  0.00000000E+00  0.00000000E+00
  0.00000000E+00  0.00000000E+00  0.00000000E+00
  0.00000000E+00  0.00000000E+00  0.00000000E+00
  0.00000000E+00  0.00000000E+00  0.00000000E+00
  0.00000000E+00  0.00000000E+00  0.00000000E+00
  0.00000000E+00  0.00000000E+00  0.00000000E+00
  0.00000000E+00  0.00000000E+00  0.00000000E+00
  0.00000000E+00  0.00000000E+00  0.00000000E+00
  0.00000000E+00  0.00000000E+00  0.00000000E+00
  0.00000000E+00  0.00000000E+00  0.00000000E+00
  0.00000000E+00  0.00000000E+00  0.00000000E+00
