Au  O Pd                                
   1.00000000000000     
    11.0025815152626798    0.0000000000000000    0.0000000000000000
     5.5012907576313399    9.5285150994265617    0.0000000000000000
     0.0000000000000000    0.0000000000000000   26.1917850942952910
   Au   O    Pd
    24     8    24
Selective dynamics
Direct
  0.0833333333333357  0.0833333333333357  0.3817991009012260   F   F   F
  0.9131616359925735  0.6628699517007777  0.4761716975545151   T   T   T
  0.0833333333333357  0.5833333333333357  0.3817991009012260   F   F   F
  0.7489796403444359  0.4916462312690342  0.5643889131441743   T   T   T
  0.0833333333333357  0.3333333333333357  0.3817991009012260   F   F   F
  0.6637803445999502  0.9184459074313857  0.4785282402350635   T   T   T
  0.9131592633755513  0.9174701470793712  0.4726616353315354   T   T   T
 -0.0098183498339735  0.7474812849238818  0.5654818721327878   T   T   T
  0.8333333333333357  0.5833333333333357  0.3817991009012260   F   F   F
  0.3333333333333357  0.0833333333333357  0.3817991009012260   F   F   F
  0.1648450864360570  0.1649020363585470  0.4768310666972758   T   T   T
  0.3333333333333357  0.5833333333333357  0.3817991009012260   F   F   F
  0.3333333333333357  0.3333333333333357  0.3817991009012260   F   F   F
  0.3333333333333357  0.8333333333333357  0.3817991009012260   F   F   F
  0.4143474218866979  0.1685059915531759  0.4793582504160498   T   T   T
  0.5049176455178588 -0.0115912641183558  0.5729814051921168   T   T   T
  0.5833333333333357  0.3333333333333357  0.3817991009012260   F   F   F
  0.5017852223118052  0.2645348889412830  0.5670681140981411   T   T   T
  0.4218802524831275  0.6616432911644523  0.4765649845572539   T   T   T
  0.5043704693844413  0.4936950027940994  0.6224291361058847   T   T   T
  0.6648088497010397  0.6659275525000137  0.4748098042539072   T   T   T
  0.8333333333333357  0.0833333333333357  0.3817991009012260   F   F   F
  0.8333333333333357  0.3333333333333357  0.3817991009012260   F   F   F
  0.1679370922092169  0.6621912104868040  0.4738674891468908   T   T   T
  0.8487469419049600  0.5546812586428709  0.6222808608044670   T   T   T
  0.1721873700224968  0.4128866920368581  0.6185790128442693   T   T   T
  0.2937595539780428  0.0774095732820491  0.6189281874065753   T   T   T
  0.2988113656418298  0.6116129910728874  0.6191113472039103   T   T   T
  0.5751674561117259  0.1002817890175445  0.6225844589447012   T   T   T
  0.7077596157292355  0.3769212276701458  0.6310808388324444   T   T   T
  0.5703580627747488  0.7859109456462861  0.6278786452473925   T   T   T
  0.8655727489276626  0.0664173095751336  0.6141454131684075   T   T   T
  0.2521464364649360  0.7451652027484720  0.5613959508444798   T   T   T
  0.7507121744880900  0.7490611137381497  0.5991023326395737   T   T   T
  0.5833333333333357  0.0833333333333357  0.3817991009012260   F   F   F
  0.7639013350458199  0.2407682128625235  0.5719469233736401   T   T   T
  0.2469538914369612  0.5003769537260282  0.5703969726740094   T   T   T
  0.0833333333333357  0.8333333333333357  0.3817991009012260   F   F   F
  0.4168417184558456  0.4161192316963872  0.4804418405099853   T   T   T
  0.0036491856946192  0.2402790548021569  0.5630944422199075   T   T   T
  0.5833333333333357  0.5833333333333357  0.3817991009012260   F   F   F
  0.9140054560068206  0.4150946626698538  0.4753365149698975   T   T   T
  0.2481471527447795  0.2416920403217676  0.5745670850187931   T   T   T
  0.1648155025248383  0.4147797110282068  0.4816087689494989   T   T   T
  0.5833333333333357  0.8333333333333357  0.3817991009012260   F   F   F
  0.4169803404134479  0.9157832355290848  0.4760720331962173   T   T   T
  0.4988737718758305  0.7362835648356166  0.5686659543652445   T   T   T
  0.0092760847742869 -0.0142258397753552  0.5609426821037828   T   T   T
  0.6649219654654662  0.1667863565015524  0.4754366221433118   T   T   T
  0.7523324984341901 -0.0100317527421524  0.5841264927585151   T   T   T
  0.2500694784677823 -0.0144991324023428  0.5644919699084194   T   T   T
  0.9126609972226212  0.1666016111370862  0.4748874884148328   T   T   T
  0.6654408318332029  0.4113245059753424  0.4798427933883791   T   T   T
  0.1678531446739180  0.9125931729637118  0.4761129706893816   T   T   T
  0.0019207946112559  0.4916793384215671  0.5712035130110871   T   T   T
  0.8333333333333357  0.8333333333333357  0.3817991009012260   F   F   F
 
  0.00000000E+00  0.00000000E+00  0.00000000E+00
  0.00000000E+00  0.00000000E+00  0.00000000E+00
  0.00000000E+00  0.00000000E+00  0.00000000E+00
  0.00000000E+00  0.00000000E+00  0.00000000E+00
  0.00000000E+00  0.00000000E+00  0.00000000E+00
  0.00000000E+00  0.00000000E+00  0.00000000E+00
  0.00000000E+00  0.00000000E+00  0.00000000E+00
  0.00000000E+00  0.00000000E+00  0.00000000E+00
  0.00000000E+00  0.00000000E+00  0.00000000E+00
  0.00000000E+00  0.00000000E+00  0.00000000E+00
  0.00000000E+00  0.00000000E+00  0.00000000E+00
  0.00000000E+00  0.00000000E+00  0.00000000E+00
  0.00000000E+00  0.00000000E+00  0.00000000E+00
  0.00000000E+00  0.00000000E+00  0.00000000E+00
  0.00000000E+00  0.00000000E+00  0.00000000E+00
  0.00000000E+00  0.00000000E+00  0.00000000E+00
  0.00000000E+00  0.00000000E+00  0.00000000E+00
  0.00000000E+00  0.00000000E+00  0.00000000E+00
  0.00000000E+00  0.00000000E+00  0.00000000E+00
  0.00000000E+00  0.00000000E+00  0.00000000E+00
  0.00000000E+00  0.00000000E+00  0.00000000E+00
  0.00000000E+00  0.00000000E+00  0.00000000E+00
  0.00000000E+00  0.00000000E+00  0.00000000E+00
  0.00000000E+00  0.00000000E+00  0.00000000E+00
  0.00000000E+00  0.00000000E+00  0.00000000E+00
  0.00000000E+00  0.00000000E+00  0.00000000E+00
  0.00000000E+00  0.00000000E+00  0.00000000E+00
  0.00000000E+00  0.00000000E+00  0.00000000E+00
  0.00000000E+00  0.00000000E+00  0.00000000E+00
  0.00000000E+00  0.00000000E+00  0.00000000E+00
  0.00000000E+00  0.00000000E+00  0.00000000E+00
  0.00000000E+00  0.00000000E+00  0.00000000E+00
  0.00000000E+00  0.00000000E+00  0.00000000E+00
  0.00000000E+00  0.00000000E+00  0.00000000E+00
  0.00000000E+00  0.00000000E+00  0.00000000E+00
  0.00000000E+00  0.00000000E+00  0.00000000E+00
  0.00000000E+00  0.00000000E+00  0.00000000E+00
  0.00000000E+00  0.00000000E+00  0.00000000E+00
  0.00000000E+00  0.00000000E+00  0.00000000E+00
  0.00000000E+00  0.00000000E+00  0.00000000E+00
  0.00000000E+00  0.00000000E+00  0.00000000E+00
  0.00000000E+00  0.00000000E+00  0.00000000E+00
  0.00000000E+00  0.00000000E+00  0.00000000E+00
  0.00000000E+00  0.00000000E+00  0.00000000E+00
  0.00000000E+00  0.00000000E+00  0.00000000E+00
  0.00000000E+00  0.00000000E+00  0.00000000E+00
  0.00000000E+00  0.00000000E+00  0.00000000E+00
  0.00000000E+00  0.00000000E+00  0.00000000E+00
  0.00000000E+00  0.00000000E+00  0.00000000E+00
  0.00000000E+00  0.00000000E+00  0.00000000E+00
  0.00000000E+00  0.00000000E+00  0.00000000E+00
  0.00000000E+00  0.00000000E+00  0.00000000E+00
  0.00000000E+00  0.00000000E+00  0.00000000E+00
  0.00000000E+00  0.00000000E+00  0.00000000E+00
  0.00000000E+00  0.00000000E+00  0.00000000E+00
  0.00000000E+00  0.00000000E+00  0.00000000E+00
