Au Pd                                   
   1.00000000000000     
    11.0025815152626798    0.0000000000000000    0.0000000000000000
     5.5012907576313399    9.5285150994265617    0.0000000000000000
     0.0000000000000000    0.0000000000000000   24.4917850942952882
   Au   Pd
    24    24
Direct
  0.3325227595973735  0.3347216597749446  0.3927771994385753
  0.4163342816025685  0.4174609691230051  0.5001055699036254
  0.5834119518131375  0.8313742874399626  0.3965984264844508
  0.5844701588118120  0.0830276739509971  0.3944348388704417
  0.6670155679436863  0.9153156397810531  0.4995303890896898
  0.1649318554060874  0.9181765525714023  0.5007656363041646
  0.3299963091058633  0.8333914261213989  0.3960763799310854
  0.8347868416513622  0.0808503536368533  0.3992824205520044
  0.6682770217462753  0.1671976890607575  0.5005467168140308
  0.3314690917497045  0.5837527347199603  0.3962879310317727
  0.7493696526701793  0.0008734576249009  0.6037057885732452
  0.1665582692037139  0.4166265663044989  0.4998021378787872
  0.4993758610877280  0.4991485367454959  0.6060382150718372
  0.2538357781402023 -0.0017283072919457  0.6014770350495769
  0.4181961701404541  0.6674258018025742  0.5008043157235065
  0.3311654960588297  0.0833996871223173  0.3977363884951669
  0.0024800243051682  0.7498527449859752  0.6027098648187048
  0.0023665307046225  0.5000758153710038  0.6058482195721937
  0.8329072089676897  0.5853413336231746  0.3992405357609289
  0.0019195445873356  0.2475628948426150  0.6032649639828561
  0.9154141805632501  0.4168307918180658  0.5016799097842930
  0.0817284779999886  0.3334231672840116  0.3958691866174885
  0.7482616309940329  0.5018713961799638  0.6040802126896052
  0.8299737533366178  0.3335483825408097  0.3994878064072002
  0.6672005644840684  0.4177475103580738  0.5024183208608718
  0.7510489933806969  0.2488831741865053  0.5983744769483065
  0.6672950426616102  0.6670586015888380  0.5002954293780592
  0.5010426912672880  0.7509360779462453  0.5966224028191459
  0.4159520320599038  0.9181641363195407  0.4982409297902024
  0.8352540754932819  0.8322494656555879  0.4045189596726653
  0.0819462825921003  0.0828619507829197  0.4042475020468937
  0.2513130595473829  0.7497086204357917  0.5978275199913068
  0.4991238403028043  0.2490549853206220  0.5964583689660983
  0.5820723339310266  0.3343960760674178  0.4031137933003839
  0.5002774105796881  0.0003127993482605  0.5943012125708529
  0.4163930203388090  0.1661224577748810  0.4966543535437555
  0.2518706649247682  0.4989984217839213  0.5979604675474708
  0.1648427333889551  0.6677649964016346  0.5010635900835361
  0.2542005409111281  0.2487740110887149  0.5955269999220834
  0.1677098616988125  0.1664211104580423  0.5004818533501504
  0.9172368894506727  0.9157777959076610  0.5020616442384427
  0.0813376819019050  0.8324517483247137  0.4046228527769773
  0.9175781068003852  0.6667317969151834  0.5019910750618454
  0.0818403273147198  0.5854196935777252  0.4040768619830154
  0.0005120527600244 -0.0002383621825097  0.5983209762551519
  0.9165713865888935  0.1673236806853710  0.5009732344578882
  0.5821525958692995  0.5825982425520463  0.4042132375452349
  0.7484593935640925  0.7509597535690177  0.5974838480444289
 
  0.00000000E+00  0.00000000E+00  0.00000000E+00
  0.00000000E+00  0.00000000E+00  0.00000000E+00
  0.00000000E+00  0.00000000E+00  0.00000000E+00
  0.00000000E+00  0.00000000E+00  0.00000000E+00
  0.00000000E+00  0.00000000E+00  0.00000000E+00
  0.00000000E+00  0.00000000E+00  0.00000000E+00
  0.00000000E+00  0.00000000E+00  0.00000000E+00
  0.00000000E+00  0.00000000E+00  0.00000000E+00
  0.00000000E+00  0.00000000E+00  0.00000000E+00
  0.00000000E+00  0.00000000E+00  0.00000000E+00
  0.00000000E+00  0.00000000E+00  0.00000000E+00
  0.00000000E+00  0.00000000E+00  0.00000000E+00
  0.00000000E+00  0.00000000E+00  0.00000000E+00
  0.00000000E+00  0.00000000E+00  0.00000000E+00
  0.00000000E+00  0.00000000E+00  0.00000000E+00
  0.00000000E+00  0.00000000E+00  0.00000000E+00
  0.00000000E+00  0.00000000E+00  0.00000000E+00
  0.00000000E+00  0.00000000E+00  0.00000000E+00
  0.00000000E+00  0.00000000E+00  0.00000000E+00
  0.00000000E+00  0.00000000E+00  0.00000000E+00
  0.00000000E+00  0.00000000E+00  0.00000000E+00
  0.00000000E+00  0.00000000E+00  0.00000000E+00
  0.00000000E+00  0.00000000E+00  0.00000000E+00
  0.00000000E+00  0.00000000E+00  0.00000000E+00
  0.00000000E+00  0.00000000E+00  0.00000000E+00
  0.00000000E+00  0.00000000E+00  0.00000000E+00
  0.00000000E+00  0.00000000E+00  0.00000000E+00
  0.00000000E+00  0.00000000E+00  0.00000000E+00
  0.00000000E+00  0.00000000E+00  0.00000000E+00
  0.00000000E+00  0.00000000E+00  0.00000000E+00
  0.00000000E+00  0.00000000E+00  0.00000000E+00
  0.00000000E+00  0.00000000E+00  0.00000000E+00
  0.00000000E+00  0.00000000E+00  0.00000000E+00
  0.00000000E+00  0.00000000E+00  0.00000000E+00
  0.00000000E+00  0.00000000E+00  0.00000000E+00
  0.00000000E+00  0.00000000E+00  0.00000000E+00
  0.00000000E+00  0.00000000E+00  0.00000000E+00
  0.00000000E+00  0.00000000E+00  0.00000000E+00
  0.00000000E+00  0.00000000E+00  0.00000000E+00
  0.00000000E+00  0.00000000E+00  0.00000000E+00
  0.00000000E+00  0.00000000E+00  0.00000000E+00
  0.00000000E+00  0.00000000E+00  0.00000000E+00
  0.00000000E+00  0.00000000E+00  0.00000000E+00
  0.00000000E+00  0.00000000E+00  0.00000000E+00
  0.00000000E+00  0.00000000E+00  0.00000000E+00
  0.00000000E+00  0.00000000E+00  0.00000000E+00
  0.00000000E+00  0.00000000E+00  0.00000000E+00
  0.00000000E+00  0.00000000E+00  0.00000000E+00
