Au  O Pd                                
   1.00000000000000     
    11.0025815152626798    0.0000000000000000    0.0000000000000000
     5.5012907576313399    9.5285150994265617    0.0000000000000000
     0.0000000000000000    0.0000000000000000   26.1917850942952910
   Au   O    Pd
    24     8    24
Selective dynamics
Direct
  0.0833333333333357  0.0833333333333357  0.3817991009012260   F   F   F
  0.6692203185872455  0.9137585851995392  0.4749349794125328   T   T   T
 -0.0027588381270728  0.2500430202454713  0.5603674745209511   T   T   T
  0.9238036299062000  0.9146054635456420  0.4761053199737314   T   T   T
 -0.0341768363141282  0.7624078126051269  0.6091154552682632   T   T   T
  0.9661954480245479  0.0171132708014749  0.6076260192154738   T   T   T
  0.9239588300435456  0.6614041903384749  0.4759364477639687   T   T   T
  0.3333333333333357  0.8333333333333357  0.3817991009012260   F   F   F
  0.8333333333333357  0.8333333333333357  0.3817991009012260   F   F   F
  0.4998807765281673  0.7543042759996826  0.5663770445417897   T   T   T
  0.7580485367262941  0.2417711049453041  0.5624054817028057   T   T   T
  0.8333333333333357  0.3333333333333357  0.3817991009012260   F   F   F
  0.6651690368165252  0.4152572036827871  0.4770822517893440   T   T   T
  0.7599746646574305  0.9883220419702734  0.5636742158859411   T   T   T
  0.7598970857250874  0.5141720713837877  0.6258792631782125   T   T   T
  0.5833333333333357  0.8333333333333357  0.3817991009012260   F   F   F
  0.3333333333333357  0.3333333333333357  0.3817991009012260   F   F   F
  0.5833333333333357  0.5833333333333357  0.3817991009012260   F   F   F
  0.4722675140081992  0.2478072105077420  0.5987846522525505   T   T   T
  0.4203453822979997  0.1638406801264085  0.4719306250030755   T   T   T
  0.2324157303272225  0.7638815242136729  0.5622056504875558   T   T   T
  0.3333333333333357  0.5833333333333357  0.3817991009012260   F   F   F
  0.2547736415603105  0.2394392292468137  0.5600432757541026   T   T   T
  0.6694049320273314  0.6609424776188317  0.4768165601881911   T   T   T
  0.6012426891171955  0.3255247428647232  0.6198818131711100   T   T   T
  0.0886469222523151  0.5495582049616958  0.6150689782037484   T   T   T
  0.5802450274351579  0.0431994162730877  0.6232511372570926   T   T   T
  0.9621487111586920  0.4035125995488781  0.6261706191107372   T   T   T
  0.3269119773036601  0.5784735884253638  0.6097594207236758   T   T   T
  0.5563569023814880  0.6104763299550408  0.6269469669417884   T   T   T
  0.1116840945145642  0.0834837476237482  0.6171545949810838   T   T   T
  0.1029078104816701  0.8232380993640090  0.6366348938188723   T   T   T
  0.3333333333333357  0.0833333333333357  0.3817991009012260   F   F   F
  0.1696165028384481  0.4150274178844961  0.4728238532713284   T   T   T
  0.1705236288381029  0.6613705993720834  0.4721024273394802   T   T   T
  0.2517714698661259  0.4903712074205168  0.5654946067136767   T   T   T
  0.1674397298316144  0.9150893236668595  0.4732393496185325   T   T   T
  0.0833333333333357  0.8333333333333357  0.3817991009012260   F   F   F
  0.7595997452682611  0.7348490530938071  0.5667252371008813   T   T   T
  0.5833333333333357  0.0833333333333357  0.3817991009012260   F   F   F
  0.5028914536755851  0.9913604132836160  0.5654063692918379   T   T   T
  0.5833333333333357  0.3333333333333357  0.3817991009012260   F   F   F
  0.1672377337763908  0.1641000801507066  0.4700681703455287   T   T   T
  0.0004257316312155  0.4897332953099051  0.5626162324893274   T   T   T
  0.4189216662103901  0.4134296230131005  0.4808434648213274   T   T   T
  0.6675177199494755  0.1663054008360371  0.4710715269285575   T   T   T
  0.4153742465949645  0.9144558391437820  0.4776612567976100   T   T   T
  0.9175516935321986  0.1641647218019746  0.4747577858616555   T   T   T
  0.0833333333333357  0.3333333333333357  0.3817991009012260   F   F   F
  0.9195898036848634  0.4133805915682900  0.4744584438215760   T   T   T
  0.8333333333333357  0.0833333333333357  0.3817991009012260   F   F   F
  0.2501913741955167 -0.0029168693016411  0.5610572553876044   T   T   T
  0.0833333333333357  0.5833333333333357  0.3817991009012260   F   F   F
  0.5089058520153666  0.4949061785763123  0.5724658943662431   T   T   T
  0.4135965712073670  0.6640125664547660  0.4788320226122042   T   T   T
  0.8333333333333357  0.5833333333333357  0.3817991009012260   F   F   F
 
  0.00000000E+00  0.00000000E+00  0.00000000E+00
  0.00000000E+00  0.00000000E+00  0.00000000E+00
  0.00000000E+00  0.00000000E+00  0.00000000E+00
  0.00000000E+00  0.00000000E+00  0.00000000E+00
  0.00000000E+00  0.00000000E+00  0.00000000E+00
  0.00000000E+00  0.00000000E+00  0.00000000E+00
  0.00000000E+00  0.00000000E+00  0.00000000E+00
  0.00000000E+00  0.00000000E+00  0.00000000E+00
  0.00000000E+00  0.00000000E+00  0.00000000E+00
  0.00000000E+00  0.00000000E+00  0.00000000E+00
  0.00000000E+00  0.00000000E+00  0.00000000E+00
  0.00000000E+00  0.00000000E+00  0.00000000E+00
  0.00000000E+00  0.00000000E+00  0.00000000E+00
  0.00000000E+00  0.00000000E+00  0.00000000E+00
  0.00000000E+00  0.00000000E+00  0.00000000E+00
  0.00000000E+00  0.00000000E+00  0.00000000E+00
  0.00000000E+00  0.00000000E+00  0.00000000E+00
  0.00000000E+00  0.00000000E+00  0.00000000E+00
  0.00000000E+00  0.00000000E+00  0.00000000E+00
  0.00000000E+00  0.00000000E+00  0.00000000E+00
  0.00000000E+00  0.00000000E+00  0.00000000E+00
  0.00000000E+00  0.00000000E+00  0.00000000E+00
  0.00000000E+00  0.00000000E+00  0.00000000E+00
  0.00000000E+00  0.00000000E+00  0.00000000E+00
  0.00000000E+00  0.00000000E+00  0.00000000E+00
  0.00000000E+00  0.00000000E+00  0.00000000E+00
  0.00000000E+00  0.00000000E+00  0.00000000E+00
  0.00000000E+00  0.00000000E+00  0.00000000E+00
  0.00000000E+00  0.00000000E+00  0.00000000E+00
  0.00000000E+00  0.00000000E+00  0.00000000E+00
  0.00000000E+00  0.00000000E+00  0.00000000E+00
  0.00000000E+00  0.00000000E+00  0.00000000E+00
  0.00000000E+00  0.00000000E+00  0.00000000E+00
  0.00000000E+00  0.00000000E+00  0.00000000E+00
  0.00000000E+00  0.00000000E+00  0.00000000E+00
  0.00000000E+00  0.00000000E+00  0.00000000E+00
  0.00000000E+00  0.00000000E+00  0.00000000E+00
  0.00000000E+00  0.00000000E+00  0.00000000E+00
  0.00000000E+00  0.00000000E+00  0.00000000E+00
  0.00000000E+00  0.00000000E+00  0.00000000E+00
  0.00000000E+00  0.00000000E+00  0.00000000E+00
  0.00000000E+00  0.00000000E+00  0.00000000E+00
  0.00000000E+00  0.00000000E+00  0.00000000E+00
  0.00000000E+00  0.00000000E+00  0.00000000E+00
  0.00000000E+00  0.00000000E+00  0.00000000E+00
  0.00000000E+00  0.00000000E+00  0.00000000E+00
  0.00000000E+00  0.00000000E+00  0.00000000E+00
  0.00000000E+00  0.00000000E+00  0.00000000E+00
  0.00000000E+00  0.00000000E+00  0.00000000E+00
  0.00000000E+00  0.00000000E+00  0.00000000E+00
  0.00000000E+00  0.00000000E+00  0.00000000E+00
  0.00000000E+00  0.00000000E+00  0.00000000E+00
  0.00000000E+00  0.00000000E+00  0.00000000E+00
  0.00000000E+00  0.00000000E+00  0.00000000E+00
  0.00000000E+00  0.00000000E+00  0.00000000E+00
  0.00000000E+00  0.00000000E+00  0.00000000E+00
