Au  O Pd                                
   1.00000000000000     
    11.0025815152626798    0.0000000000000000    0.0000000000000000
     5.5012907576313399    9.5285150994265617    0.0000000000000000
     0.0000000000000000    0.0000000000000000   26.1917850942952910
   Au   O    Pd
    24     8    24
Selective dynamics
Direct
  0.0833333333333357  0.0833333333333357  0.3817991009012260   F   F   F
  0.6663462785627964  0.9218707429771165  0.4743822076308537   T   T   T
  0.0025620761244520  0.2480817822964314  0.5579711266078075   T   T   T
  0.9207706156809109  0.9181675099488107  0.4793127448979932   T   T   T
 -0.0038474416947497  0.7305568568263809  0.5839031413977370   T   T   T
 -0.0103474868908637  0.0101271381951974  0.5841604551526435   T   T   T
  0.9226885987154386  0.6625842456759112  0.4763411063528200   T   T   T
  0.3333333333333357  0.8333333333333357  0.3817991009012260   F   F   F
  0.8333333333333357  0.8333333333333357  0.3817991009012260   F   F   F
  0.4990656083760703  0.7604133616301901  0.5703389234141160   T   T   T
  0.7494610811771707  0.2515828615308764  0.5628098470091796   T   T   T
  0.8333333333333357  0.3333333333333357  0.3817991009012260   F   F   F
  0.6628506013435000  0.4196916137232949  0.4773974478975086   T   T   T
  0.7598703784623707 -0.0074611829828270  0.5705828713344492   T   T   T
  0.7660816526322791  0.5233557147287851  0.5986336611648674   T   T   T
  0.5833333333333357  0.8333333333333357  0.3817991009012260   F   F   F
  0.3333333333333357  0.3333333333333357  0.3817991009012260   F   F   F
  0.5833333333333357  0.5833333333333357  0.3817991009012260   F   F   F
  0.4844146339641346  0.2485389629635593  0.5825414910451382   T   T   T
  0.4136663347305425  0.1696857757720103  0.4761837466100117   T   T   T
  0.2496753567865964  0.7567533151412095  0.5692771864369053   T   T   T
  0.3333333333333357  0.5833333333333357  0.3817991009012260   F   F   F
  0.2500170334715389  0.2415878163049415  0.5749855337681050   T   T   T
  0.6683548702170368  0.6641460824545572  0.4778999548975413   T   T   T
  0.5836454944260648  0.3372508391124766  0.6207007719728814   T   T   T
  0.1014243854815448  0.3937993455947687  0.6227848905481331   T   T   T
  0.5790192927527070  0.0486489572685746  0.6202335268417078   T   T   T
  0.8467829376963313  0.3204172599912937  0.6211655741305818   T   T   T
  0.3055450154744574  0.5623382178329419  0.6146046897370034   T   T   T
  0.5647719383463525  0.6032818449215005  0.6252865318273011   T   T   T
  0.1389591621974226  0.0510811068418503  0.6173770085816854   T   T   T
  0.0775511281255568  0.8277057421026442  0.6276292518033938   T   T   T
  0.3333333333333357  0.0833333333333357  0.3817991009012260   F   F   F
  0.1670098018283522  0.4144885020629299  0.4721548222831127   T   T   T
  0.1688491701755480  0.6647223342469311  0.4711254349604119   T   T   T
  0.2466596997924342  0.4947209179999453  0.5562710441177460   T   T   T
  0.1668623947418767  0.9148951883599675  0.4733082309239838   T   T   T
  0.0833333333333357  0.8333333333333357  0.3817991009012260   F   F   F
  0.7468236578678696  0.7518655753544653  0.5631568827998688   T   T   T
  0.5833333333333357  0.0833333333333357  0.3817991009012260   F   F   F
  0.4958540303009634 -0.0002756144026929  0.5630312343787288   T   T   T
  0.5833333333333357  0.3333333333333357  0.3817991009012260   F   F   F
  0.1661902124555940  0.1664506648680601  0.4714266324573698   T   T   T
 -0.0021414273263421  0.4979024392529153  0.5642645179701122   T   T   T
  0.4189013490324512  0.4162491784796700  0.4743313049099622   T   T   T
  0.6657479873311887  0.1697687422376518  0.4758319590567837   T   T   T
  0.4169222734623573  0.9155925356450562  0.4759611431214154   T   T   T
  0.9158079374283332  0.1656098510100771  0.4727515748399578   T   T   T
  0.0833333333333357  0.3333333333333357  0.3817991009012260   F   F   F
  0.9179857508974681  0.4157107541432090  0.4723913065269776   T   T   T
  0.8333333333333357  0.0833333333333357  0.3817991009012260   F   F   F
  0.2551070758461764 -0.0044037232887975  0.5582522128928880   T   T   T
  0.0833333333333357  0.5833333333333357  0.3817991009012260   F   F   F
  0.4923299704592672  0.5027292744132477  0.5761822429684077   T   T   T
  0.4122303541941840  0.6688766995137135  0.4809667515521932   T   T   T
  0.8333333333333357  0.5833333333333357  0.3817991009012260   F   F   F
 
  0.00000000E+00  0.00000000E+00  0.00000000E+00
  0.00000000E+00  0.00000000E+00  0.00000000E+00
  0.00000000E+00  0.00000000E+00  0.00000000E+00
  0.00000000E+00  0.00000000E+00  0.00000000E+00
  0.00000000E+00  0.00000000E+00  0.00000000E+00
  0.00000000E+00  0.00000000E+00  0.00000000E+00
  0.00000000E+00  0.00000000E+00  0.00000000E+00
  0.00000000E+00  0.00000000E+00  0.00000000E+00
  0.00000000E+00  0.00000000E+00  0.00000000E+00
  0.00000000E+00  0.00000000E+00  0.00000000E+00
  0.00000000E+00  0.00000000E+00  0.00000000E+00
  0.00000000E+00  0.00000000E+00  0.00000000E+00
  0.00000000E+00  0.00000000E+00  0.00000000E+00
  0.00000000E+00  0.00000000E+00  0.00000000E+00
  0.00000000E+00  0.00000000E+00  0.00000000E+00
  0.00000000E+00  0.00000000E+00  0.00000000E+00
  0.00000000E+00  0.00000000E+00  0.00000000E+00
  0.00000000E+00  0.00000000E+00  0.00000000E+00
  0.00000000E+00  0.00000000E+00  0.00000000E+00
  0.00000000E+00  0.00000000E+00  0.00000000E+00
  0.00000000E+00  0.00000000E+00  0.00000000E+00
  0.00000000E+00  0.00000000E+00  0.00000000E+00
  0.00000000E+00  0.00000000E+00  0.00000000E+00
  0.00000000E+00  0.00000000E+00  0.00000000E+00
  0.00000000E+00  0.00000000E+00  0.00000000E+00
  0.00000000E+00  0.00000000E+00  0.00000000E+00
  0.00000000E+00  0.00000000E+00  0.00000000E+00
  0.00000000E+00  0.00000000E+00  0.00000000E+00
  0.00000000E+00  0.00000000E+00  0.00000000E+00
  0.00000000E+00  0.00000000E+00  0.00000000E+00
  0.00000000E+00  0.00000000E+00  0.00000000E+00
  0.00000000E+00  0.00000000E+00  0.00000000E+00
  0.00000000E+00  0.00000000E+00  0.00000000E+00
  0.00000000E+00  0.00000000E+00  0.00000000E+00
  0.00000000E+00  0.00000000E+00  0.00000000E+00
  0.00000000E+00  0.00000000E+00  0.00000000E+00
  0.00000000E+00  0.00000000E+00  0.00000000E+00
  0.00000000E+00  0.00000000E+00  0.00000000E+00
  0.00000000E+00  0.00000000E+00  0.00000000E+00
  0.00000000E+00  0.00000000E+00  0.00000000E+00
  0.00000000E+00  0.00000000E+00  0.00000000E+00
  0.00000000E+00  0.00000000E+00  0.00000000E+00
  0.00000000E+00  0.00000000E+00  0.00000000E+00
  0.00000000E+00  0.00000000E+00  0.00000000E+00
  0.00000000E+00  0.00000000E+00  0.00000000E+00
  0.00000000E+00  0.00000000E+00  0.00000000E+00
  0.00000000E+00  0.00000000E+00  0.00000000E+00
  0.00000000E+00  0.00000000E+00  0.00000000E+00
  0.00000000E+00  0.00000000E+00  0.00000000E+00
  0.00000000E+00  0.00000000E+00  0.00000000E+00
  0.00000000E+00  0.00000000E+00  0.00000000E+00
  0.00000000E+00  0.00000000E+00  0.00000000E+00
  0.00000000E+00  0.00000000E+00  0.00000000E+00
  0.00000000E+00  0.00000000E+00  0.00000000E+00
  0.00000000E+00  0.00000000E+00  0.00000000E+00
  0.00000000E+00  0.00000000E+00  0.00000000E+00
