Au  O Pd                                
   1.00000000000000     
    11.0025815152626798    0.0000000000000000    0.0000000000000000
     5.5012907576313399    9.5285150994265617    0.0000000000000000
     0.0000000000000000    0.0000000000000000   26.1917850942952910
   Au   O    Pd
    24     8    24
Selective dynamics
Direct
  0.0833333333333357  0.0833333333333357  0.3817991009012260   F   F   F
  0.1631178955155705  0.6689731250443152  0.4812291047386680   T   T   T
  0.3333333333333357  0.5833333333333357  0.3817991009012260   F   F   F
  0.8333333333333357  0.8333333333333357  0.3817991009012260   F   F   F
  0.8333333333333357  0.5833333333333357  0.3817991009012260   F   F   F
  0.0833333333333357  0.3333333333333357  0.3817991009012260   F   F   F
  0.9187841937593543  0.4164718627151834  0.4826255886661233   T   T   T
  0.6683628510504261  0.4189069760979498  0.4770276306478560   T   T   T
  0.8333333333333357  0.3333333333333357  0.3817991009012260   F   F   F
  0.0833333333333357  0.5833333333333357  0.3817991009012260   F   F   F
  0.6680710170574194  0.1619475951016976  0.4769276089074260   T   T   T
  0.0833333333333357  0.8333333333333357  0.3817991009012260   F   F   F
  0.8333333333333357  0.0833333333333357  0.3817991009012260   F   F   F
  0.4154607425924983  0.9179377198631989  0.4790083907121779   T   T   T
  0.5833333333333357  0.8333333333333357  0.3817991009012260   F   F   F
  0.3333333333333357  0.0833333333333357  0.3817991009012260   F   F   F
  0.5833333333333357  0.5833333333333357  0.3817991009012260   F   F   F
  0.4128756910503250  0.4178021114454662  0.4775522617815878   T   T   T
  0.5833333333333357  0.3333333333333357  0.3817991009012260   F   F   F
  0.3333333333333357  0.3333333333333357  0.3817991009012260   F   F   F
  0.1650858443560469  0.4144787402015221  0.4850741604376625   T   T   T
  0.5833333333333357  0.0833333333333357  0.3817991009012260   F   F   F
  0.3333333333333357  0.8333333333333357  0.3817991009012260   F   F   F
  0.9180892052380416  0.9149158184362296  0.4835153650746868   T   T   T
  0.1119725614776621  0.5703687076178403  0.6220383981043784   T   T   T
  0.1064319728574665  0.8317076135108313  0.6162719041585956   T   T   T
  0.3383216134199223  0.0822434399864506  0.6163046084664412   T   T   T
  0.0848277019950806  0.3261709581696043  0.6184613017822498   T   T   T
  0.0759532226244207  0.0863967273590194  0.6157449675740319   T   T   T
  0.8156715123533521  0.8664764801521748  0.6207204845388795   T   T   T
  0.8150421763803244  0.5711127490703832  0.6192693915667449   T   T   T
  0.5645695305920495  0.8305823018574271  0.6139125767974445   T   T   T
  0.6667512485071141  0.9135515961508578  0.4815528547601255   T   T   T
  0.1671500637889656  0.9186336318819456  0.4788336238041586   T   T   T
  0.2621011527745035  0.7429583890399369  0.5676483307734682   T   T   T
  0.7480518584497773  0.7520137108901080  0.5796150402840045   T   T   T
  0.2576519215405810  0.2559795931541762  0.5764949154241515   T   T   T
  0.4156014500341284  0.1640160238020278  0.4792432584032977   T   T   T
  0.5034578560827359  0.0047219288965275  0.5715848087532387   T   T   T
  0.9217646964600364  0.1639822854072546  0.4788515087781826   T   T   T
  0.2526725600925557 -0.0065905194445609  0.5720898357985450   T   T   T
  0.5022662583799122  0.2525667352473069  0.5647004220349209   T   T   T
 -0.0084814016539798  0.0039985791623536  0.5728225158955893   T   T   T
  0.1670140689477913  0.1650996941676988  0.4780504810745858   T   T   T
  0.0014603645440393  0.7513786463315358  0.5826815555786129   T   T   T
  0.5019806207986882  0.4964483480393523  0.5646165033614434   T   T   T
  0.7404830972221911  0.4957918331480110  0.5698414229259146   T   T   T
  0.2651471905752704  0.4951347031474505  0.5733469866673757   T   T   T
  0.4975972890505264  0.7418305315023075  0.5653866543029811   T   T   T
 -0.0013244987067700  0.5036390191882585  0.5817617930281140   T   T   T
  0.9134535570282596  0.6681371062638821  0.4859922949352578   T   T   T
  0.7410372348660359  0.0158521335180492  0.5717051503175909   T   T   T
  0.6679318624113721  0.6686451211651285  0.4773690348963908   T   T   T
 -0.0114666614343558  0.2555478392046257  0.5731378040148344   T   T   T
  0.7452314284364979  0.2520965142541756  0.5641764269810997   T   T   T
  0.4155521851127327  0.6690828076597686  0.4774504810414981   T   T   T
 
  0.00000000E+00  0.00000000E+00  0.00000000E+00
  0.00000000E+00  0.00000000E+00  0.00000000E+00
  0.00000000E+00  0.00000000E+00  0.00000000E+00
  0.00000000E+00  0.00000000E+00  0.00000000E+00
  0.00000000E+00  0.00000000E+00  0.00000000E+00
  0.00000000E+00  0.00000000E+00  0.00000000E+00
  0.00000000E+00  0.00000000E+00  0.00000000E+00
  0.00000000E+00  0.00000000E+00  0.00000000E+00
  0.00000000E+00  0.00000000E+00  0.00000000E+00
  0.00000000E+00  0.00000000E+00  0.00000000E+00
  0.00000000E+00  0.00000000E+00  0.00000000E+00
  0.00000000E+00  0.00000000E+00  0.00000000E+00
  0.00000000E+00  0.00000000E+00  0.00000000E+00
  0.00000000E+00  0.00000000E+00  0.00000000E+00
  0.00000000E+00  0.00000000E+00  0.00000000E+00
  0.00000000E+00  0.00000000E+00  0.00000000E+00
  0.00000000E+00  0.00000000E+00  0.00000000E+00
  0.00000000E+00  0.00000000E+00  0.00000000E+00
  0.00000000E+00  0.00000000E+00  0.00000000E+00
  0.00000000E+00  0.00000000E+00  0.00000000E+00
  0.00000000E+00  0.00000000E+00  0.00000000E+00
  0.00000000E+00  0.00000000E+00  0.00000000E+00
  0.00000000E+00  0.00000000E+00  0.00000000E+00
  0.00000000E+00  0.00000000E+00  0.00000000E+00
  0.00000000E+00  0.00000000E+00  0.00000000E+00
  0.00000000E+00  0.00000000E+00  0.00000000E+00
  0.00000000E+00  0.00000000E+00  0.00000000E+00
  0.00000000E+00  0.00000000E+00  0.00000000E+00
  0.00000000E+00  0.00000000E+00  0.00000000E+00
  0.00000000E+00  0.00000000E+00  0.00000000E+00
  0.00000000E+00  0.00000000E+00  0.00000000E+00
  0.00000000E+00  0.00000000E+00  0.00000000E+00
  0.00000000E+00  0.00000000E+00  0.00000000E+00
  0.00000000E+00  0.00000000E+00  0.00000000E+00
  0.00000000E+00  0.00000000E+00  0.00000000E+00
  0.00000000E+00  0.00000000E+00  0.00000000E+00
  0.00000000E+00  0.00000000E+00  0.00000000E+00
  0.00000000E+00  0.00000000E+00  0.00000000E+00
  0.00000000E+00  0.00000000E+00  0.00000000E+00
  0.00000000E+00  0.00000000E+00  0.00000000E+00
  0.00000000E+00  0.00000000E+00  0.00000000E+00
  0.00000000E+00  0.00000000E+00  0.00000000E+00
  0.00000000E+00  0.00000000E+00  0.00000000E+00
  0.00000000E+00  0.00000000E+00  0.00000000E+00
  0.00000000E+00  0.00000000E+00  0.00000000E+00
  0.00000000E+00  0.00000000E+00  0.00000000E+00
  0.00000000E+00  0.00000000E+00  0.00000000E+00
  0.00000000E+00  0.00000000E+00  0.00000000E+00
  0.00000000E+00  0.00000000E+00  0.00000000E+00
  0.00000000E+00  0.00000000E+00  0.00000000E+00
  0.00000000E+00  0.00000000E+00  0.00000000E+00
  0.00000000E+00  0.00000000E+00  0.00000000E+00
  0.00000000E+00  0.00000000E+00  0.00000000E+00
  0.00000000E+00  0.00000000E+00  0.00000000E+00
  0.00000000E+00  0.00000000E+00  0.00000000E+00
  0.00000000E+00  0.00000000E+00  0.00000000E+00
