Au  O Pd                                
   1.00000000000000     
    11.0025815152626798    0.0000000000000000    0.0000000000000000
     5.5012907576313399    9.5285150994265617    0.0000000000000000
     0.0000000000000000    0.0000000000000000   26.1917850942952910
   Au   O    Pd
    24     8    24
Selective dynamics
Direct
  0.0833333333333357  0.0833333333333357  0.3817991009012260   F   F   F
  0.9197140404765454  0.9112711177369102  0.4809494956795795   T   T   T
 -0.0065952483720671  0.7622228515922462  0.5767300772597574   T   T   T
  0.0047536157738086  0.4971879487744468  0.5603775824435971   T   T   T
  0.8333333333333357  0.8333333333333357  0.3817991009012260   F   F   F
  0.0833333333333357  0.5833333333333357  0.3817991009012260   F   F   F
  0.9206971001275733  0.1684334843809163  0.4806451362249913   T   T   T
  0.7450046292616423  0.4990884389766950  0.5554045179204896   T   T   T
  0.1695078345153943  0.4128297712300187  0.4736065274125326   T   T   T
  0.5833333333333357  0.3333333333333357  0.3817991009012260   F   F   F
  0.8333333333333357  0.3333333333333357  0.3817991009012260   F   F   F
  0.8333333333333357  0.0833333333333357  0.3817991009012260   F   F   F
  0.6654770033364623  0.1705401748673923  0.4787735338735299   T   T   T
  0.4163382875812757  0.9144616507094390  0.4725221274748568   T   T   T
  0.4942388859749678  0.4954687048910461  0.5687626332962318   T   T   T
  0.5020712399944801  0.0039207826413621  0.5611369859226675   T   T   T
  0.3333333333333357  0.5833333333333357  0.3817991009012260   F   F   F
  0.5833333333333357  0.0833333333333357  0.3817991009012260   F   F   F
  0.7525219364446407  0.7580655191754323  0.5699044273028139   T   T   T
  0.2416937801437538  0.7496408328494792  0.5636997405667350   T   T   T
  0.3333333333333357  0.8333333333333357  0.3817991009012260   F   F   F
  0.7457601683197316  0.2517013110011611  0.5700214778843006   T   T   T
  0.2543481525374884  0.4949710057307034  0.5728516047342844   T   T   T
  0.4719687511568603  0.7604071477181744  0.5826701614725761   T   T   T
  0.8571435124595072  0.2749005800815952  0.6288749292742377   T   T   T
  0.8295473892314084  0.5795071089323330  0.6121097361471505   T   T   T
  0.3201506336219760  0.0754033142296944  0.6103390049345203   T   T   T
  0.1166249044047981  0.6129838227520432  0.6287344040205736   T   T   T
  0.6165507303143902  0.1271112549468636  0.6217429227486477   T   T   T
  0.5720481575618994  0.5701603192784653  0.6227732508987243   T   T   T
  0.5825522140629676  0.8403536054256224  0.6193111890924412   T   T   T
  0.0930340081424181  0.3299909448130419  0.6158610227620231   T   T   T
  0.1681294413769514  0.6632625437476087  0.4736383213885291   T   T   T
  0.9118579318841533  0.6676796281902175  0.4762227560553676   T   T   T
  0.4163633423752780  0.1675167005692184  0.4750033060508372   T   T   T
  0.2540602278587589  0.2481503792468771  0.5679649762691837   T   T   T
  0.1669786285592381  0.1669728230894226  0.4740139788395908   T   T   T
  0.4140395954352442  0.4176401607771122  0.4812927602036498   T   T   T
  0.4998422958989044  0.2506957521965588  0.5682927876112318   T   T   T
  0.6655747920251188  0.6692822921221698  0.4697155779807630   T   T   T
  0.5833333333333357  0.5833333333333357  0.3817991009012260   F   F   F
  0.4197362379322688  0.6653933603530640  0.4751395217378356   T   T   T
  0.0035946190329811  0.2365527470945465  0.5804188022960701   T   T   T
  0.3333333333333357  0.0833333333333357  0.3817991009012260   F   F   F
  0.5833333333333357  0.8333333333333357  0.3817991009012260   F   F   F
  0.9158114150463152  0.4178752096895286  0.4716556371107001   T   T   T
  0.0833333333333357  0.3333333333333357  0.3817991009012260   F   F   F
  0.3333333333333357  0.3333333333333357  0.3817991009012260   F   F   F
  0.6674330870380752  0.9153823911699286  0.4749924933488838   T   T   T
 -0.0019025647512946  0.0030621203773070  0.5693060169176084   T   T   T
  0.7507398410263829  0.0044190369892933  0.5701960838903940   T   T   T
  0.8333333333333357  0.5833333333333357  0.3817991009012260   F   F   F
  0.6625700700499639  0.4206458799984117  0.4728918187308113   T   T   T
  0.0833333333333357  0.8333333333333357  0.3817991009012260   F   F   F
  0.1654107703024090  0.9148996206695011  0.4747356258685002   T   T   T
  0.2404656981585520 -0.0029154840726078  0.5625960256341933   T   T   T
 
  0.00000000E+00  0.00000000E+00  0.00000000E+00
  0.00000000E+00  0.00000000E+00  0.00000000E+00
  0.00000000E+00  0.00000000E+00  0.00000000E+00
  0.00000000E+00  0.00000000E+00  0.00000000E+00
  0.00000000E+00  0.00000000E+00  0.00000000E+00
  0.00000000E+00  0.00000000E+00  0.00000000E+00
  0.00000000E+00  0.00000000E+00  0.00000000E+00
  0.00000000E+00  0.00000000E+00  0.00000000E+00
  0.00000000E+00  0.00000000E+00  0.00000000E+00
  0.00000000E+00  0.00000000E+00  0.00000000E+00
  0.00000000E+00  0.00000000E+00  0.00000000E+00
  0.00000000E+00  0.00000000E+00  0.00000000E+00
  0.00000000E+00  0.00000000E+00  0.00000000E+00
  0.00000000E+00  0.00000000E+00  0.00000000E+00
  0.00000000E+00  0.00000000E+00  0.00000000E+00
  0.00000000E+00  0.00000000E+00  0.00000000E+00
  0.00000000E+00  0.00000000E+00  0.00000000E+00
  0.00000000E+00  0.00000000E+00  0.00000000E+00
  0.00000000E+00  0.00000000E+00  0.00000000E+00
  0.00000000E+00  0.00000000E+00  0.00000000E+00
  0.00000000E+00  0.00000000E+00  0.00000000E+00
  0.00000000E+00  0.00000000E+00  0.00000000E+00
  0.00000000E+00  0.00000000E+00  0.00000000E+00
  0.00000000E+00  0.00000000E+00  0.00000000E+00
  0.00000000E+00  0.00000000E+00  0.00000000E+00
  0.00000000E+00  0.00000000E+00  0.00000000E+00
  0.00000000E+00  0.00000000E+00  0.00000000E+00
  0.00000000E+00  0.00000000E+00  0.00000000E+00
  0.00000000E+00  0.00000000E+00  0.00000000E+00
  0.00000000E+00  0.00000000E+00  0.00000000E+00
  0.00000000E+00  0.00000000E+00  0.00000000E+00
  0.00000000E+00  0.00000000E+00  0.00000000E+00
  0.00000000E+00  0.00000000E+00  0.00000000E+00
  0.00000000E+00  0.00000000E+00  0.00000000E+00
  0.00000000E+00  0.00000000E+00  0.00000000E+00
  0.00000000E+00  0.00000000E+00  0.00000000E+00
  0.00000000E+00  0.00000000E+00  0.00000000E+00
  0.00000000E+00  0.00000000E+00  0.00000000E+00
  0.00000000E+00  0.00000000E+00  0.00000000E+00
  0.00000000E+00  0.00000000E+00  0.00000000E+00
  0.00000000E+00  0.00000000E+00  0.00000000E+00
  0.00000000E+00  0.00000000E+00  0.00000000E+00
  0.00000000E+00  0.00000000E+00  0.00000000E+00
  0.00000000E+00  0.00000000E+00  0.00000000E+00
  0.00000000E+00  0.00000000E+00  0.00000000E+00
  0.00000000E+00  0.00000000E+00  0.00000000E+00
  0.00000000E+00  0.00000000E+00  0.00000000E+00
  0.00000000E+00  0.00000000E+00  0.00000000E+00
  0.00000000E+00  0.00000000E+00  0.00000000E+00
  0.00000000E+00  0.00000000E+00  0.00000000E+00
  0.00000000E+00  0.00000000E+00  0.00000000E+00
  0.00000000E+00  0.00000000E+00  0.00000000E+00
  0.00000000E+00  0.00000000E+00  0.00000000E+00
  0.00000000E+00  0.00000000E+00  0.00000000E+00
  0.00000000E+00  0.00000000E+00  0.00000000E+00
  0.00000000E+00  0.00000000E+00  0.00000000E+00
