Au Pd                                   
   1.00000000000000     
    11.0025815152626798    0.0000000000000000    0.0000000000000000
     5.5012907576313399    9.5285150994265617    0.0000000000000000
     0.0000000000000000    0.0000000000000000   24.4917850942952882
   Au   Pd
    24    24
Direct
  0.0834179198259760  0.0802532327358569  0.3979930991011196
  0.5832327904794297  0.3342045320122567  0.3984007356888976
  0.4140318533122501  0.6668796193801991  0.5011617658173316
  0.4974432251971594  0.4987284445970654  0.6045839817794952
  0.5850563202886241  0.0821114569139279  0.3968589791094630
  0.6659827912139998  0.9196091322188378  0.5005814744653679
  0.4148529988573997  0.9180356254189490  0.5007499383389714
  0.5002211343301709  0.7514101608909207  0.6093049477674685
  0.3302528006631211  0.5865047672195318  0.3964393841758357
  0.7488677363442502 -0.0008114185464744  0.6043751983202863
  0.8322045801543524  0.3341446434842910  0.3982956396778856
  0.4157676380203282  0.4148613929174564  0.4991822056086470
  0.1662913768770196  0.1675227273175697  0.4990015588054602
  0.2486101168204995  0.0007317397301346  0.6037414533841883
  0.0032868611083831  0.7466412220917378  0.6052255982012363
  0.9182932098636036  0.9183950182326966  0.5016399022385413
  0.7519130994821662  0.2478111695298808  0.6009545810382644
  0.9196285647605834  0.6653656999720207  0.5000040836064934
  0.8313557909639763  0.5878645904500773  0.3932775094784113
  0.6661125242259850  0.6658182804222390  0.5013134377718329
  0.9161585804422836  0.4157020465229988  0.4996165525441130
  0.0843083925015169  0.3364589256207468  0.3931357214103063
  0.7526772031483346  0.4992010629240921  0.6048567302496295
  0.3347356190207092  0.0826078613330054  0.3947949482536587
  0.6664111119205843  0.4150726304050666  0.5015929717808605
  0.6665423796408716  0.1679348509420738  0.4999410859603958
  0.8335709731808498  0.0824852709388055  0.4038287326391138
  0.5833721217249628  0.8325403700202018  0.4028588106339386
  0.8349900517760639  0.8337895112842119  0.4029973415088803
  0.5823125259552152  0.5854524929086835  0.4039825654992555
  0.2498958960149099  0.7492953272151954  0.5980006591968593
  0.4988853679940781  0.0016492012763261  0.5976176726508736
  0.9151351611962045  0.1674065589234643  0.5000354110380306
  0.0020113704493085 -0.0013849741666182  0.5984287811497397
  0.0017586066536099  0.2487360103585652  0.5968556129621486
  0.0829505269562532  0.5852475558040016  0.4019922179026286
  0.0031996121872964  0.4970796935079018  0.5964944477405326
  0.0819959235319530  0.8331156965618005  0.4045066580659157
  0.4989172756537492  0.2479074146841292  0.5954866031436008
  0.3322341756876320  0.3349799984741747  0.4008097875480012
  0.2507395565878422  0.2512101557167111  0.5947695729703065
  0.1667705846596957  0.6662755596046219  0.5004543540274899
  0.2501512013908840  0.4983148830779673  0.5956635608506778
  0.3334885382597852  0.8330199544579177  0.4031600605211843
  0.1651200291444814  0.9179691578333243  0.5006355610690970
  0.4166604654907646  0.1670689761428031  0.4975256994921216
  0.1670921144241280  0.4161673535446890  0.4977697424601610
  0.7510913016167545  0.7486144170939640  0.5991026623552804
 
  0.00000000E+00  0.00000000E+00  0.00000000E+00
  0.00000000E+00  0.00000000E+00  0.00000000E+00
  0.00000000E+00  0.00000000E+00  0.00000000E+00
  0.00000000E+00  0.00000000E+00  0.00000000E+00
  0.00000000E+00  0.00000000E+00  0.00000000E+00
  0.00000000E+00  0.00000000E+00  0.00000000E+00
  0.00000000E+00  0.00000000E+00  0.00000000E+00
  0.00000000E+00  0.00000000E+00  0.00000000E+00
  0.00000000E+00  0.00000000E+00  0.00000000E+00
  0.00000000E+00  0.00000000E+00  0.00000000E+00
  0.00000000E+00  0.00000000E+00  0.00000000E+00
  0.00000000E+00  0.00000000E+00  0.00000000E+00
  0.00000000E+00  0.00000000E+00  0.00000000E+00
  0.00000000E+00  0.00000000E+00  0.00000000E+00
  0.00000000E+00  0.00000000E+00  0.00000000E+00
  0.00000000E+00  0.00000000E+00  0.00000000E+00
  0.00000000E+00  0.00000000E+00  0.00000000E+00
  0.00000000E+00  0.00000000E+00  0.00000000E+00
  0.00000000E+00  0.00000000E+00  0.00000000E+00
  0.00000000E+00  0.00000000E+00  0.00000000E+00
  0.00000000E+00  0.00000000E+00  0.00000000E+00
  0.00000000E+00  0.00000000E+00  0.00000000E+00
  0.00000000E+00  0.00000000E+00  0.00000000E+00
  0.00000000E+00  0.00000000E+00  0.00000000E+00
  0.00000000E+00  0.00000000E+00  0.00000000E+00
  0.00000000E+00  0.00000000E+00  0.00000000E+00
  0.00000000E+00  0.00000000E+00  0.00000000E+00
  0.00000000E+00  0.00000000E+00  0.00000000E+00
  0.00000000E+00  0.00000000E+00  0.00000000E+00
  0.00000000E+00  0.00000000E+00  0.00000000E+00
  0.00000000E+00  0.00000000E+00  0.00000000E+00
  0.00000000E+00  0.00000000E+00  0.00000000E+00
  0.00000000E+00  0.00000000E+00  0.00000000E+00
  0.00000000E+00  0.00000000E+00  0.00000000E+00
  0.00000000E+00  0.00000000E+00  0.00000000E+00
  0.00000000E+00  0.00000000E+00  0.00000000E+00
  0.00000000E+00  0.00000000E+00  0.00000000E+00
  0.00000000E+00  0.00000000E+00  0.00000000E+00
  0.00000000E+00  0.00000000E+00  0.00000000E+00
  0.00000000E+00  0.00000000E+00  0.00000000E+00
  0.00000000E+00  0.00000000E+00  0.00000000E+00
  0.00000000E+00  0.00000000E+00  0.00000000E+00
  0.00000000E+00  0.00000000E+00  0.00000000E+00
  0.00000000E+00  0.00000000E+00  0.00000000E+00
  0.00000000E+00  0.00000000E+00  0.00000000E+00
  0.00000000E+00  0.00000000E+00  0.00000000E+00
  0.00000000E+00  0.00000000E+00  0.00000000E+00
  0.00000000E+00  0.00000000E+00  0.00000000E+00
