Au Pd                                   
   1.00000000000000     
    11.0025815152626798    0.0000000000000000    0.0000000000000000
     5.5012907576313399    9.5285150994265617    0.0000000000000000
     0.0000000000000000    0.0000000000000000   24.4917850942952882
   Au   Pd
    24    24
Direct
  0.7500087568193514  0.7492778271747204  0.6035922393447636
  0.4991443105702593 -0.0019990079079960  0.6058983600492687
  0.4153450871012271  0.6647886131126396  0.4998472803297414
  0.4997010851858008  0.5022544370016522  0.6054312078434470
  0.6665205669653124  0.9168783572440234  0.5005052925174289
  0.1665400729360396  0.9163736620714138  0.4992467757248713
  0.2474691987257291  0.5038007303376053  0.6011566182722500
  0.4147428001447868  0.9197431546374710  0.5004788244015194
  0.2476912017850194  0.2477234877108486  0.6006187544427276
  0.3358053467787932  0.3335266865723110  0.4015245659400319
  0.5801748471131547  0.5852144468855588  0.3914121113518515
  0.3336041503745052  0.0827799609685419  0.3986026383663083
  0.6645790118100076  0.1681782998446864  0.5012912027750063
  0.9182447313763983  0.9134486359330085  0.4984377699443889
  0.6666719354596662  0.4166496260652339  0.4995601117000613
 -0.0025188233919267  0.5000121511490934  0.5990641981456917
  0.7536300079887686  0.2473828357968581  0.6073814245603578
  0.0855368890952690  0.5844591747523579  0.3994289824041728
  0.8341555887743383  0.5832230433859675  0.3964170188489220
  0.6687813373388688  0.6652430641965008  0.4991569413108420
  0.8329779048681151  0.8366980777991757  0.3946215996736535
  0.9182687483846982  0.1684812536342431  0.4990805855189509
  0.8352056983719421  0.3312946680492375  0.3940649181541129
  0.5007929127367275  0.2489263645178799  0.6043429095275739
  0.7519195575898764 -0.0016800902364797  0.5987748706654867
  0.8337438912338001  0.0841581924618913  0.4015956587067253
  0.4981437826041151  0.7499783643332649  0.5977829030542919
  0.5831554494377654  0.8342799655920955  0.4017908183761250
  0.7496058697075002  0.4987042896127121  0.5964912258069700
  0.0843333210645036  0.0822830001795469  0.4013284943822463
  0.5843602892800910  0.3331069188400944  0.4034880790750195
  0.0003987004379417 -0.0017345393659286  0.5972169230648666
  0.0840427669275438  0.3318941128571245  0.4038319540992301
  0.9187718422621012  0.4166812864334202  0.4985925644235215
 -0.0007615696245253  0.2478947620712694  0.5961345684162140
  0.9185496137117104  0.6640880477108867  0.4983774611370062
  0.0857434111708940  0.8355083547222442  0.4007381164761967
 -0.0010239656201763  0.7524149291568758  0.5954302184376737
  0.1669441605860324  0.1694716721833135  0.4997417205999294
  0.2475418269290919 -0.0013634978049048  0.5978023734472150
  0.1665952317394518  0.4165818056088108  0.5004743419325467
  0.3340028816044393  0.5846068063693292  0.4033560274807609
  0.1666766518905470  0.6630310605282937  0.4998366104515838
  0.3331310026084014  0.8334029891823287  0.4014365297818159
  0.5840633181302515  0.0841887687357359  0.4037727649274093
  0.4143503479504400  0.1692978892027046  0.5016994076153819
  0.4143499751611403  0.4166868160717092  0.5017182576132700
  0.2482882759042116  0.7521585446206288  0.5974257788805710
 
  0.00000000E+00  0.00000000E+00  0.00000000E+00
  0.00000000E+00  0.00000000E+00  0.00000000E+00
  0.00000000E+00  0.00000000E+00  0.00000000E+00
  0.00000000E+00  0.00000000E+00  0.00000000E+00
  0.00000000E+00  0.00000000E+00  0.00000000E+00
  0.00000000E+00  0.00000000E+00  0.00000000E+00
  0.00000000E+00  0.00000000E+00  0.00000000E+00
  0.00000000E+00  0.00000000E+00  0.00000000E+00
  0.00000000E+00  0.00000000E+00  0.00000000E+00
  0.00000000E+00  0.00000000E+00  0.00000000E+00
  0.00000000E+00  0.00000000E+00  0.00000000E+00
  0.00000000E+00  0.00000000E+00  0.00000000E+00
  0.00000000E+00  0.00000000E+00  0.00000000E+00
  0.00000000E+00  0.00000000E+00  0.00000000E+00
  0.00000000E+00  0.00000000E+00  0.00000000E+00
  0.00000000E+00  0.00000000E+00  0.00000000E+00
  0.00000000E+00  0.00000000E+00  0.00000000E+00
  0.00000000E+00  0.00000000E+00  0.00000000E+00
  0.00000000E+00  0.00000000E+00  0.00000000E+00
  0.00000000E+00  0.00000000E+00  0.00000000E+00
  0.00000000E+00  0.00000000E+00  0.00000000E+00
  0.00000000E+00  0.00000000E+00  0.00000000E+00
  0.00000000E+00  0.00000000E+00  0.00000000E+00
  0.00000000E+00  0.00000000E+00  0.00000000E+00
  0.00000000E+00  0.00000000E+00  0.00000000E+00
  0.00000000E+00  0.00000000E+00  0.00000000E+00
  0.00000000E+00  0.00000000E+00  0.00000000E+00
  0.00000000E+00  0.00000000E+00  0.00000000E+00
  0.00000000E+00  0.00000000E+00  0.00000000E+00
  0.00000000E+00  0.00000000E+00  0.00000000E+00
  0.00000000E+00  0.00000000E+00  0.00000000E+00
  0.00000000E+00  0.00000000E+00  0.00000000E+00
  0.00000000E+00  0.00000000E+00  0.00000000E+00
  0.00000000E+00  0.00000000E+00  0.00000000E+00
  0.00000000E+00  0.00000000E+00  0.00000000E+00
  0.00000000E+00  0.00000000E+00  0.00000000E+00
  0.00000000E+00  0.00000000E+00  0.00000000E+00
  0.00000000E+00  0.00000000E+00  0.00000000E+00
  0.00000000E+00  0.00000000E+00  0.00000000E+00
  0.00000000E+00  0.00000000E+00  0.00000000E+00
  0.00000000E+00  0.00000000E+00  0.00000000E+00
  0.00000000E+00  0.00000000E+00  0.00000000E+00
  0.00000000E+00  0.00000000E+00  0.00000000E+00
  0.00000000E+00  0.00000000E+00  0.00000000E+00
  0.00000000E+00  0.00000000E+00  0.00000000E+00
  0.00000000E+00  0.00000000E+00  0.00000000E+00
  0.00000000E+00  0.00000000E+00  0.00000000E+00
  0.00000000E+00  0.00000000E+00  0.00000000E+00
