Au Pd                                   
   1.00000000000000     
    11.0025815152626798    0.0000000000000000    0.0000000000000000
     5.5012907576313399    9.5285150994265617    0.0000000000000000
     0.0000000000000000    0.0000000000000000   24.4917850942952882
   Au   Pd
    24    24
Direct
  0.2484294814572111  0.7513909821192671  0.6045460229807385
  0.1653589382873184  0.9172059527161079  0.5003439390212479
  0.4994014617330567 -0.0025989007142906  0.6027554078336629
  0.5814764563487314  0.3331512649059807  0.3956051664600924
  0.4993101053913954  0.2497303427000739  0.6035172490549507
  0.5827049124798560  0.5879748011830936  0.3900958371478825
  0.4155257146502815  0.6678030626520786  0.4992731172531100
  0.3305075368422377  0.5845146763767306  0.3982815041191843
  0.4990924622423093  0.5006833569654553  0.6037894144778091
  0.6667277745799086  0.1650356798939100  0.4993211224746861
  0.8358054503071415  0.3325372067091222  0.3926957122926498
  0.6667290132553360  0.4159968821571980  0.4979420031899365
  0.7514695353320903  0.2476674075060721  0.6022272305376357
  0.6663488322852107  0.6694982375775618  0.4984217817431023
  0.8328411292121054  0.8319002871602199  0.3992875293609366
  0.8357051228605733  0.0810721708086368  0.3964994400871742
  0.2481076984296897  0.2507520804740865  0.6048652137755710
  0.7500094221721131  0.7476869196803020  0.6018948736307934
  0.0870371258390333  0.3326810208139561  0.3943343790913550
  0.9174512504561396  0.4181453978599788  0.4979310190139237
 -0.0007718544213154  0.2489038554412412  0.6024166185656437
  0.1686243827567981  0.1659617304178399  0.5001875861608384
 -0.0010416920897555  0.7497692778353905  0.6005714785181044
  0.1683909778114845  0.4190992468963685  0.5006747544548096
  0.3345151544887667  0.3315863590639954  0.4050598679179864
  0.9164781110119674  0.1657624037503145  0.4984826593972007
  0.7493912554700903  0.4993679189098254  0.5957305358600328
 -0.0009106797964965 -0.0003145459027303  0.5963120540370249
  0.8335943885502430  0.5838759715975610  0.4007399844890998
  0.7509367930844819 -0.0013308890102295  0.5959574269215554
  0.0835210849833367  0.5834486942178523  0.4039457861205175
  0.9164149743776211  0.6711977186315601  0.4996238992666923
  0.4994103523730112  0.7488619759192797  0.5971758897498849
  0.4184491358646311  0.9185477060124998  0.5012056078973069
 -0.0007898571533400  0.4992257265873094  0.5968588459286711
  0.0849621022259204  0.8330132125049763  0.4034560295123268
  0.9160940358267478  0.9156862693802981  0.4987367172292222
  0.4163401850014773  0.4167932182960137  0.5005744230994964
  0.3362194482944431  0.0817727308081763  0.4046281445654093
  0.4182277868973870  0.1658654165783711  0.5030674692308756
  0.5800278381942788  0.0837553279746591  0.4046002021872535
  0.6662885850143314  0.9168401236432858  0.5006865771418898
  0.2495134240685189 -0.0016041120367730  0.5983248819776723
  0.3329496511954577  0.8358172641616453  0.4029291532339343
  0.2487106107453605  0.5004342374746357  0.5979486321600647
  0.1662486980601626  0.6678264115602999  0.5010076034876083
  0.5817796792125152  0.8354800191479079  0.4031392405788300
  0.0863860037901354  0.0815279005928845  0.4023299667636054
 
  0.00000000E+00  0.00000000E+00  0.00000000E+00
  0.00000000E+00  0.00000000E+00  0.00000000E+00
  0.00000000E+00  0.00000000E+00  0.00000000E+00
  0.00000000E+00  0.00000000E+00  0.00000000E+00
  0.00000000E+00  0.00000000E+00  0.00000000E+00
  0.00000000E+00  0.00000000E+00  0.00000000E+00
  0.00000000E+00  0.00000000E+00  0.00000000E+00
  0.00000000E+00  0.00000000E+00  0.00000000E+00
  0.00000000E+00  0.00000000E+00  0.00000000E+00
  0.00000000E+00  0.00000000E+00  0.00000000E+00
  0.00000000E+00  0.00000000E+00  0.00000000E+00
  0.00000000E+00  0.00000000E+00  0.00000000E+00
  0.00000000E+00  0.00000000E+00  0.00000000E+00
  0.00000000E+00  0.00000000E+00  0.00000000E+00
  0.00000000E+00  0.00000000E+00  0.00000000E+00
  0.00000000E+00  0.00000000E+00  0.00000000E+00
  0.00000000E+00  0.00000000E+00  0.00000000E+00
  0.00000000E+00  0.00000000E+00  0.00000000E+00
  0.00000000E+00  0.00000000E+00  0.00000000E+00
  0.00000000E+00  0.00000000E+00  0.00000000E+00
  0.00000000E+00  0.00000000E+00  0.00000000E+00
  0.00000000E+00  0.00000000E+00  0.00000000E+00
  0.00000000E+00  0.00000000E+00  0.00000000E+00
  0.00000000E+00  0.00000000E+00  0.00000000E+00
  0.00000000E+00  0.00000000E+00  0.00000000E+00
  0.00000000E+00  0.00000000E+00  0.00000000E+00
  0.00000000E+00  0.00000000E+00  0.00000000E+00
  0.00000000E+00  0.00000000E+00  0.00000000E+00
  0.00000000E+00  0.00000000E+00  0.00000000E+00
  0.00000000E+00  0.00000000E+00  0.00000000E+00
  0.00000000E+00  0.00000000E+00  0.00000000E+00
  0.00000000E+00  0.00000000E+00  0.00000000E+00
  0.00000000E+00  0.00000000E+00  0.00000000E+00
  0.00000000E+00  0.00000000E+00  0.00000000E+00
  0.00000000E+00  0.00000000E+00  0.00000000E+00
  0.00000000E+00  0.00000000E+00  0.00000000E+00
  0.00000000E+00  0.00000000E+00  0.00000000E+00
  0.00000000E+00  0.00000000E+00  0.00000000E+00
  0.00000000E+00  0.00000000E+00  0.00000000E+00
  0.00000000E+00  0.00000000E+00  0.00000000E+00
  0.00000000E+00  0.00000000E+00  0.00000000E+00
  0.00000000E+00  0.00000000E+00  0.00000000E+00
  0.00000000E+00  0.00000000E+00  0.00000000E+00
  0.00000000E+00  0.00000000E+00  0.00000000E+00
  0.00000000E+00  0.00000000E+00  0.00000000E+00
  0.00000000E+00  0.00000000E+00  0.00000000E+00
  0.00000000E+00  0.00000000E+00  0.00000000E+00
  0.00000000E+00  0.00000000E+00  0.00000000E+00
