Au Pd                                   
   1.00000000000000     
    11.0025815152626798    0.0000000000000000    0.0000000000000000
     5.5012907576313399    9.5285150994265617    0.0000000000000000
     0.0000000000000000    0.0000000000000000   24.4917850942952882
   Au   Pd
    24    24
Selective dynamics
Direct
  0.0833333333333357  0.0833333333333357  0.4083001692812189   F   F   F
  0.8333333333333357  0.3333333333333357  0.4083001692812189   F   F   F
  0.0012835775989319 -0.0024765642458361  0.6071953352055186   T   T   T
  0.0833333333333357  0.3333333333333357  0.4083001692812189   F   F   F
  0.0004060913433311  0.2514604507363060  0.6084529945210612   T   T   T
  0.6664651695723741  0.6671124107684991  0.5098075353581629   T   T   T
  0.9169231415554602  0.6697474732291396  0.5069163058194107   T   T   T
 -0.0017997951114292  0.5025287498507497  0.6113981357323973   T   T   T
  0.8333333333333357  0.5833333333333357  0.4083001692812189   F   F   F
  0.7487887487047294  0.2537888243599613  0.6113331327793753   T   T   T
  0.2507398966862244 -0.0007910148586953  0.6092773743282153   T   T   T
  0.7519919686589172 -0.0031790099943796  0.6099690007004490   T   T   T
  0.4984342911193207  0.2523946971161233  0.6120184923652114   T   T   T
  0.6701428413795851  0.1661720966507521  0.5087272862726715   T   T   T
  0.1665510916057632  0.4181322327004294  0.5075637628397411   T   T   T
  0.5012727208418246  0.7464177227275773  0.6146095505091812   T   T   T
  0.4143530053556899  0.9178537462607270  0.5058545397445378   T   T   T
  0.2497791939383288  0.5031100075584543  0.6100203943808890   T   T   T
  0.4141309049959015  0.6659689980878838  0.5068538371986089   T   T   T
  0.5833333333333357  0.0833333333333357  0.4083001692812189   F   F   F
  0.4155737675686508  0.1674199469840579  0.5079071425690019   T   T   T
  0.5011093622962368 -0.0014536638386479  0.6121228389245270   T   T   T
  0.5833333333333357  0.3333333333333357  0.4083001692812189   F   F   F
  0.5833333333333357  0.5833333333333357  0.4083001692812189   F   F   F
  0.0009381491754845  0.7499856753427466  0.6031317708334877   T   T   T
  0.4163461848304674  0.4176283157536764  0.5076744801466609   T   T   T
  0.3333333333333357  0.0833333333333357  0.4083001692812189   F   F   F
  0.3333333333333357  0.3333333333333357  0.4083001692812189   F   F   F
  0.1630599562193007  0.9173606128638349  0.5061029306998907   T   T   T
  0.3333333333333357  0.5833333333333357  0.4083001692812189   F   F   F
  0.1664904358741304  0.6684910378015310  0.5052809894828317   T   T   T
  0.3333333333333357  0.8333333333333357  0.4083001692812189   F   F   F
  0.9184465275778784  0.9174474467619547  0.5053766932709323   T   T   T
  0.2499648752050609  0.2510373023086075  0.6056506510209699   T   T   T
  0.0833333333333357  0.8333333333333357  0.4083001692812189   F   F   F
  0.2500258240511282  0.7490622756453227  0.6026799030645817   T   T   T
  0.9167421423777798  0.4152704320238026  0.5097038344618032   T   T   T
  0.9174997293654893  0.1672538805492575  0.5080470058218318   T   T   T
  0.6678526314384610  0.9172578786174587  0.5077795268116565   T   T   T
  0.8333333333333357  0.8333333333333357  0.4083001692812189   F   F   F
  0.7492526816749702  0.5011659501721365  0.6060810019991907   T   T   T
  0.4994353299760909  0.5014530780438536  0.6044139955302079   T   T   T
  0.5833333333333357  0.8333333333333357  0.4083001692812189   F   F   F
  0.8333333333333357  0.0833333333333357  0.4083001692812189   F   F   F
  0.6683720975726630  0.4151717084025719  0.5091227608733255   T   T   T
  0.1650395687207704  0.1659484777886254  0.5078282843091894   T   T   T
  0.0833333333333357  0.5833333333333357  0.4083001692812189   F   F   F
  0.7511244188463968  0.7494355497925499  0.6056908923108844   T   T   T
 
  0.00000000E+00  0.00000000E+00  0.00000000E+00
  0.00000000E+00  0.00000000E+00  0.00000000E+00
  0.00000000E+00  0.00000000E+00  0.00000000E+00
  0.00000000E+00  0.00000000E+00  0.00000000E+00
  0.00000000E+00  0.00000000E+00  0.00000000E+00
  0.00000000E+00  0.00000000E+00  0.00000000E+00
  0.00000000E+00  0.00000000E+00  0.00000000E+00
  0.00000000E+00  0.00000000E+00  0.00000000E+00
  0.00000000E+00  0.00000000E+00  0.00000000E+00
  0.00000000E+00  0.00000000E+00  0.00000000E+00
  0.00000000E+00  0.00000000E+00  0.00000000E+00
  0.00000000E+00  0.00000000E+00  0.00000000E+00
  0.00000000E+00  0.00000000E+00  0.00000000E+00
  0.00000000E+00  0.00000000E+00  0.00000000E+00
  0.00000000E+00  0.00000000E+00  0.00000000E+00
  0.00000000E+00  0.00000000E+00  0.00000000E+00
  0.00000000E+00  0.00000000E+00  0.00000000E+00
  0.00000000E+00  0.00000000E+00  0.00000000E+00
  0.00000000E+00  0.00000000E+00  0.00000000E+00
  0.00000000E+00  0.00000000E+00  0.00000000E+00
  0.00000000E+00  0.00000000E+00  0.00000000E+00
  0.00000000E+00  0.00000000E+00  0.00000000E+00
  0.00000000E+00  0.00000000E+00  0.00000000E+00
  0.00000000E+00  0.00000000E+00  0.00000000E+00
  0.00000000E+00  0.00000000E+00  0.00000000E+00
  0.00000000E+00  0.00000000E+00  0.00000000E+00
  0.00000000E+00  0.00000000E+00  0.00000000E+00
  0.00000000E+00  0.00000000E+00  0.00000000E+00
  0.00000000E+00  0.00000000E+00  0.00000000E+00
  0.00000000E+00  0.00000000E+00  0.00000000E+00
  0.00000000E+00  0.00000000E+00  0.00000000E+00
  0.00000000E+00  0.00000000E+00  0.00000000E+00
  0.00000000E+00  0.00000000E+00  0.00000000E+00
  0.00000000E+00  0.00000000E+00  0.00000000E+00
  0.00000000E+00  0.00000000E+00  0.00000000E+00
  0.00000000E+00  0.00000000E+00  0.00000000E+00
  0.00000000E+00  0.00000000E+00  0.00000000E+00
  0.00000000E+00  0.00000000E+00  0.00000000E+00
  0.00000000E+00  0.00000000E+00  0.00000000E+00
  0.00000000E+00  0.00000000E+00  0.00000000E+00
  0.00000000E+00  0.00000000E+00  0.00000000E+00
  0.00000000E+00  0.00000000E+00  0.00000000E+00
  0.00000000E+00  0.00000000E+00  0.00000000E+00
  0.00000000E+00  0.00000000E+00  0.00000000E+00
  0.00000000E+00  0.00000000E+00  0.00000000E+00
  0.00000000E+00  0.00000000E+00  0.00000000E+00
  0.00000000E+00  0.00000000E+00  0.00000000E+00
  0.00000000E+00  0.00000000E+00  0.00000000E+00
