Au  O Pd                                
   1.00000000000000     
    11.0025815152626798    0.0000000000000000    0.0000000000000000
     5.5012907576313399    9.5285150994265617    0.0000000000000000
     0.0000000000000000    0.0000000000000000   26.1917850942952910
   Au   O    Pd
    24     8    24
Selective dynamics
Direct
  0.0833333333333357  0.0833333333333357  0.3817991009012260   F   F   F
  0.9194091355439684  0.9116860434347063  0.4712034958564341   T   T   T
  0.0073550538342899 -0.0034378701970493  0.5657745577766297   T   T   T
  0.9988141612356257  0.4967872133267683  0.5737385486220045   T   T   T
  0.9178890367869573  0.4124204466726846  0.4715581853454336   T   T   T
  0.3333333333333357  0.0833333333333357  0.3817991009012260   F   F   F
  0.9178736851344248  0.6636395725969811  0.4779263252520364   T   T   T
  0.3333333333333357  0.8333333333333357  0.3817991009012260   F   F   F
  0.1673537489210988  0.1644347674431023  0.4767834470219283   T   T   T
  0.4157457144450315  0.6659894929535005  0.4802253300478931   T   T   T
  0.6664730424008795  0.4121879858771937  0.4734338330740698   T   T   T
  0.8333333333333357  0.0833333333333357  0.3817991009012260   F   F   F
  0.7520964978910946  0.9757595208897055  0.5608749945481150   T   T   T
  0.5833333333333357  0.8333333333333357  0.3817991009012260   F   F   F
  0.6659248141491192  0.6677119600540830  0.4744756223921890   T   T   T
  0.5012899139848934  0.2387194359656469  0.5663844286313874   T   T   T
  0.1700011293100110  0.4138779653314393  0.4745348812885526   T   T   T
  0.4164186242634435  0.4135992180345192  0.4752350975925295   T   T   T
  0.5004101472840280 -0.0075772479481177  0.5640157532003718   T   T   T
  0.5833333333333357  0.0833333333333357  0.3817991009012260   F   F   F
  0.7680298979285564  0.7336174886540345  0.6010323974961331   T   T   T
  0.2182157054359518  0.5083067175906487  0.6052947074434302   T   T   T
  0.3333333333333357  0.5833333333333357  0.3817991009012260   F   F   F
  0.4975934314509521  0.7467737004709616  0.5723908982184416   T   T   T
  0.3464911623227875  0.2969516655973494  0.6248907635940194   T   T   T
  0.3436805740118009  0.5969984523483972  0.6213516564657511   T   T   T
  0.0812705025533872  0.8240955163160287  0.6139013310316666   T   T   T
  0.8293625087443780  0.0725053690242024  0.6118951185258367   T   T   T
  0.0932513385988999  0.3019337535502682  0.6188685440453980   T   T   T
  0.8291463650210004  0.3463918808949806  0.6087553191889802   T   T   T
  0.5855462155185086  0.3325383654739996  0.6146090727947372   T   T   T
  0.5643595843845380  0.8445742915946300  0.6271730611112436   T   T   T
  0.3333333333333357  0.3333333333333357  0.3817991009012260   F   F   F
  0.2550516538370144  0.2359524076399469  0.5730295627971855   T   T   T
  0.0035752549834924  0.7334020120732659  0.5697476932500870   T   T   T
  0.1678364623316991  0.6634965551128014  0.4733841410693468   T   T   T
  0.1660598477418103  0.9122027804426723  0.4753901702378631   T   T   T
  0.2531086942132402  0.7451134156057719  0.5691083522103386   T   T   T
  0.0833333333333357  0.8333333333333357  0.3817991009012260   F   F   F
  0.8333333333333357  0.8333333333333357  0.3817991009012260   F   F   F
  0.4182984389726075  0.1624278973375282  0.4772906622804906   T   T   T
  0.7489939139558127  0.5084200080225777  0.5614819815166427   T   T   T
  0.5833333333333357  0.3333333333333357  0.3817991009012260   F   F   F
  0.0833333333333357  0.5833333333333357  0.3817991009012260   F   F   F
  0.2532555894064532  0.9933486299458727  0.5613598396160159   T   T   T
  0.6654977414962016  0.1645020263491576  0.4763096586921470   T   T   T
  0.5027707110427401  0.5030484533103969  0.5729826022893001   T   T   T
  0.7475029673150916  0.2508583482379402  0.5679181182022306   T   T   T
  0.0062305182312298  0.2354360015578666  0.5694091578279579   T   T   T
  0.9164321635031678  0.1631888791795322  0.4785224415978133   T   T   T
  0.4161698003530830  0.9144565023145598  0.4732527356350377   T   T   T
  0.0833333333333357  0.3333333333333357  0.3817991009012260   F   F   F
  0.8333333333333357  0.3333333333333357  0.3817991009012260   F   F   F
  0.6671164369074183  0.9136604015879030  0.4728200087892717   T   T   T
  0.5833333333333357  0.5833333333333357  0.3817991009012260   F   F   F
  0.8333333333333357  0.5833333333333357  0.3817991009012260   F   F   F
 
  0.00000000E+00  0.00000000E+00  0.00000000E+00
  0.00000000E+00  0.00000000E+00  0.00000000E+00
  0.00000000E+00  0.00000000E+00  0.00000000E+00
  0.00000000E+00  0.00000000E+00  0.00000000E+00
  0.00000000E+00  0.00000000E+00  0.00000000E+00
  0.00000000E+00  0.00000000E+00  0.00000000E+00
  0.00000000E+00  0.00000000E+00  0.00000000E+00
  0.00000000E+00  0.00000000E+00  0.00000000E+00
  0.00000000E+00  0.00000000E+00  0.00000000E+00
  0.00000000E+00  0.00000000E+00  0.00000000E+00
  0.00000000E+00  0.00000000E+00  0.00000000E+00
  0.00000000E+00  0.00000000E+00  0.00000000E+00
  0.00000000E+00  0.00000000E+00  0.00000000E+00
  0.00000000E+00  0.00000000E+00  0.00000000E+00
  0.00000000E+00  0.00000000E+00  0.00000000E+00
  0.00000000E+00  0.00000000E+00  0.00000000E+00
  0.00000000E+00  0.00000000E+00  0.00000000E+00
  0.00000000E+00  0.00000000E+00  0.00000000E+00
  0.00000000E+00  0.00000000E+00  0.00000000E+00
  0.00000000E+00  0.00000000E+00  0.00000000E+00
  0.00000000E+00  0.00000000E+00  0.00000000E+00
  0.00000000E+00  0.00000000E+00  0.00000000E+00
  0.00000000E+00  0.00000000E+00  0.00000000E+00
  0.00000000E+00  0.00000000E+00  0.00000000E+00
  0.00000000E+00  0.00000000E+00  0.00000000E+00
  0.00000000E+00  0.00000000E+00  0.00000000E+00
  0.00000000E+00  0.00000000E+00  0.00000000E+00
  0.00000000E+00  0.00000000E+00  0.00000000E+00
  0.00000000E+00  0.00000000E+00  0.00000000E+00
  0.00000000E+00  0.00000000E+00  0.00000000E+00
  0.00000000E+00  0.00000000E+00  0.00000000E+00
  0.00000000E+00  0.00000000E+00  0.00000000E+00
  0.00000000E+00  0.00000000E+00  0.00000000E+00
  0.00000000E+00  0.00000000E+00  0.00000000E+00
  0.00000000E+00  0.00000000E+00  0.00000000E+00
  0.00000000E+00  0.00000000E+00  0.00000000E+00
  0.00000000E+00  0.00000000E+00  0.00000000E+00
  0.00000000E+00  0.00000000E+00  0.00000000E+00
  0.00000000E+00  0.00000000E+00  0.00000000E+00
  0.00000000E+00  0.00000000E+00  0.00000000E+00
  0.00000000E+00  0.00000000E+00  0.00000000E+00
  0.00000000E+00  0.00000000E+00  0.00000000E+00
  0.00000000E+00  0.00000000E+00  0.00000000E+00
  0.00000000E+00  0.00000000E+00  0.00000000E+00
  0.00000000E+00  0.00000000E+00  0.00000000E+00
  0.00000000E+00  0.00000000E+00  0.00000000E+00
  0.00000000E+00  0.00000000E+00  0.00000000E+00
  0.00000000E+00  0.00000000E+00  0.00000000E+00
  0.00000000E+00  0.00000000E+00  0.00000000E+00
  0.00000000E+00  0.00000000E+00  0.00000000E+00
  0.00000000E+00  0.00000000E+00  0.00000000E+00
  0.00000000E+00  0.00000000E+00  0.00000000E+00
  0.00000000E+00  0.00000000E+00  0.00000000E+00
  0.00000000E+00  0.00000000E+00  0.00000000E+00
  0.00000000E+00  0.00000000E+00  0.00000000E+00
  0.00000000E+00  0.00000000E+00  0.00000000E+00
