Au  O Pd                                
   1.00000000000000     
    11.0025815152626798    0.0000000000000000    0.0000000000000000
     5.5012907576313399    9.5285150994265617    0.0000000000000000
     0.0000000000000000    0.0000000000000000   26.1917850942952910
   Au   O    Pd
    24     8    24
Selective dynamics
Direct
  0.0833333333333357  0.0833333333333357  0.3817991009012260   F   F   F
  0.9189456753329749  0.9170780439757603  0.4713387571286753   T   T   T
  0.0100995776970399  0.0025300147242082  0.5690811618658472   T   T   T
 -0.0059485302936844  0.5061806952491809  0.5696859825593998   T   T   T
  0.9174287543786279  0.4133135194195012  0.4713595869294027   T   T   T
  0.3333333333333357  0.0833333333333357  0.3817991009012260   F   F   F
  0.9155970319587464  0.6671703785569901  0.4738314515219257   T   T   T
  0.3333333333333357  0.8333333333333357  0.3817991009012260   F   F   F
  0.1678508765313294  0.1643179387760604  0.4762747864897119   T   T   T
  0.4157069045915889  0.6683683813817924  0.4770784852235761   T   T   T
  0.6664294357183458  0.4137300650207332  0.4733188341064364   T   T   T
  0.8333333333333357  0.0833333333333357  0.3817991009012260   F   F   F
  0.7505714129171814 -0.0108827486903472  0.5627248926099594   T   T   T
  0.5833333333333357  0.8333333333333357  0.3817991009012260   F   F   F
  0.6647240719260900  0.6694984385049295  0.4731339443180713   T   T   T
  0.5048992210769828  0.2396554500620112  0.5665064427326725   T   T   T
  0.1685149889114761  0.4156828982023987  0.4731020366724342   T   T   T
  0.4168132967803018  0.4158787383303693  0.4754509157669528   T   T   T
  0.4967990538369650  0.0001129548519657  0.5652753238653302   T   T   T
  0.5833333333333357  0.0833333333333357  0.3817991009012260   F   F   F
  0.7535496503682142  0.7464868079926640  0.5741255010716450   T   T   T
  0.2369266719112850  0.5070429680292475  0.5687427857804991   T   T   T
  0.3333333333333357  0.5833333333333357  0.3817991009012260   F   F   F
  0.4940553109292390  0.7519802708876449  0.5706752611614933   T   T   T
  0.3367823070616070  0.3143335814677734  0.6163653850766923   T   T   T
  0.3399833170952143  0.6017260256263997  0.6150980724814985   T   T   T
  0.0820688998109261  0.8189496413837966  0.6116034954869598   T   T   T
  0.8307948392499210  0.0764108867406099  0.6141648463456825   T   T   T
  0.0906718242439686  0.3200834147154717  0.6163372752858181   T   T   T
  0.8308622848362865  0.3509932191109036  0.6095960360191168   T   T   T
  0.5855810537974379  0.3362363706003085  0.6142120527106029   T   T   T
  0.5765183624157636  0.8384768933070160  0.6236423730672870   T   T   T
  0.3333333333333357  0.3333333333333357  0.3817991009012260   F   F   F
  0.2518028437391062  0.2399972066449655  0.5686909769401636   T   T   T
 -0.0058061890385927  0.7479888831602111  0.5640021483830635   T   T   T
  0.1662609471761584  0.6684376293348404  0.4725078476224142   T   T   T
  0.1660181334105875  0.9171596132912522  0.4756579806609665   T   T   T
  0.2514049811913074  0.7527166792013492  0.5653937000230898   T   T   T
  0.0833333333333357  0.8333333333333357  0.3817991009012260   F   F   F
  0.8333333333333357  0.8333333333333357  0.3817991009012260   F   F   F
  0.4186963251200944  0.1646869032643426  0.4762234560396594   T   T   T
  0.7476999944795494  0.5086971884030188  0.5615632278799260   T   T   T
  0.5833333333333357  0.3333333333333357  0.3817991009012260   F   F   F
  0.0833333333333357  0.5833333333333357  0.3817991009012260   F   F   F
  0.2531601248337654 -0.0014917800650891  0.5644095382407714   T   T   T
  0.6659448867797650  0.1672114066102379  0.4759342274033797   T   T   T
  0.5065931966605054  0.5074086155909256  0.5723013861747177   T   T   T
  0.7510766155454656  0.2530380747103270  0.5690909523471646   T   T   T
  0.0067337690639595  0.2417465510610326  0.5700252900816762   T   T   T
  0.9161594396033619  0.1659541801253340  0.4787902999051306   T   T   T
  0.4154817122047865  0.9170292375174168  0.4735511338089854   T   T   T
  0.0833333333333357  0.3333333333333357  0.3817991009012260   F   F   F
  0.8333333333333357  0.3333333333333357  0.3817991009012260   F   F   F
  0.6667629516539357  0.9174179662150478  0.4741032111028947   T   T   T
  0.5833333333333357  0.5833333333333357  0.3817991009012260   F   F   F
  0.8333333333333357  0.5833333333333357  0.3817991009012260   F   F   F
 
  0.00000000E+00  0.00000000E+00  0.00000000E+00
  0.00000000E+00  0.00000000E+00  0.00000000E+00
  0.00000000E+00  0.00000000E+00  0.00000000E+00
  0.00000000E+00  0.00000000E+00  0.00000000E+00
  0.00000000E+00  0.00000000E+00  0.00000000E+00
  0.00000000E+00  0.00000000E+00  0.00000000E+00
  0.00000000E+00  0.00000000E+00  0.00000000E+00
  0.00000000E+00  0.00000000E+00  0.00000000E+00
  0.00000000E+00  0.00000000E+00  0.00000000E+00
  0.00000000E+00  0.00000000E+00  0.00000000E+00
  0.00000000E+00  0.00000000E+00  0.00000000E+00
  0.00000000E+00  0.00000000E+00  0.00000000E+00
  0.00000000E+00  0.00000000E+00  0.00000000E+00
  0.00000000E+00  0.00000000E+00  0.00000000E+00
  0.00000000E+00  0.00000000E+00  0.00000000E+00
  0.00000000E+00  0.00000000E+00  0.00000000E+00
  0.00000000E+00  0.00000000E+00  0.00000000E+00
  0.00000000E+00  0.00000000E+00  0.00000000E+00
  0.00000000E+00  0.00000000E+00  0.00000000E+00
  0.00000000E+00  0.00000000E+00  0.00000000E+00
  0.00000000E+00  0.00000000E+00  0.00000000E+00
  0.00000000E+00  0.00000000E+00  0.00000000E+00
  0.00000000E+00  0.00000000E+00  0.00000000E+00
  0.00000000E+00  0.00000000E+00  0.00000000E+00
  0.00000000E+00  0.00000000E+00  0.00000000E+00
  0.00000000E+00  0.00000000E+00  0.00000000E+00
  0.00000000E+00  0.00000000E+00  0.00000000E+00
  0.00000000E+00  0.00000000E+00  0.00000000E+00
  0.00000000E+00  0.00000000E+00  0.00000000E+00
  0.00000000E+00  0.00000000E+00  0.00000000E+00
  0.00000000E+00  0.00000000E+00  0.00000000E+00
  0.00000000E+00  0.00000000E+00  0.00000000E+00
  0.00000000E+00  0.00000000E+00  0.00000000E+00
  0.00000000E+00  0.00000000E+00  0.00000000E+00
  0.00000000E+00  0.00000000E+00  0.00000000E+00
  0.00000000E+00  0.00000000E+00  0.00000000E+00
  0.00000000E+00  0.00000000E+00  0.00000000E+00
  0.00000000E+00  0.00000000E+00  0.00000000E+00
  0.00000000E+00  0.00000000E+00  0.00000000E+00
  0.00000000E+00  0.00000000E+00  0.00000000E+00
  0.00000000E+00  0.00000000E+00  0.00000000E+00
  0.00000000E+00  0.00000000E+00  0.00000000E+00
  0.00000000E+00  0.00000000E+00  0.00000000E+00
  0.00000000E+00  0.00000000E+00  0.00000000E+00
  0.00000000E+00  0.00000000E+00  0.00000000E+00
  0.00000000E+00  0.00000000E+00  0.00000000E+00
  0.00000000E+00  0.00000000E+00  0.00000000E+00
  0.00000000E+00  0.00000000E+00  0.00000000E+00
  0.00000000E+00  0.00000000E+00  0.00000000E+00
  0.00000000E+00  0.00000000E+00  0.00000000E+00
  0.00000000E+00  0.00000000E+00  0.00000000E+00
  0.00000000E+00  0.00000000E+00  0.00000000E+00
  0.00000000E+00  0.00000000E+00  0.00000000E+00
  0.00000000E+00  0.00000000E+00  0.00000000E+00
  0.00000000E+00  0.00000000E+00  0.00000000E+00
  0.00000000E+00  0.00000000E+00  0.00000000E+00
