Au  O Pd                                
   1.00000000000000     
    11.0025815152626798    0.0000000000000000    0.0000000000000000
     5.5012907576313399    9.5285150994265617    0.0000000000000000
     0.0000000000000000    0.0000000000000000   26.1917850942952910
   Au   O    Pd
    24     8    24
Selective dynamics
Direct
  0.0833333333333357  0.0833333333333357  0.3817991009012260   F   F   F
  0.3333333333333357  0.8333333333333357  0.3817991009012260   F   F   F
  0.0833333333333357  0.8333333333333357  0.3817991009012260   F   F   F
  0.6722139140020461  0.9119151996001383  0.4819638430636398   T   T   T
  0.8333333333333357  0.8333333333333357  0.3817991009012260   F   F   F
  0.0833333333333357  0.3333333333333357  0.3817991009012260   F   F   F
  0.8333333333333357  0.5833333333333357  0.3817991009012260   F   F   F
  0.6676182804054744  0.4182083819882364  0.4801757036060549   T   T   T
  0.8333333333333357  0.3333333333333357  0.3817991009012260   F   F   F
  0.0833333333333357  0.5833333333333357  0.3817991009012260   F   F   F
  0.6687321051548547  0.1650740467697284  0.4789918822099358   T   T   T
  0.4185121855066167  0.9137965417708093  0.4802709477974158   T   T   T
  0.8333333333333357  0.0833333333333357  0.3817991009012260   F   F   F
  0.5833333333333357  0.8333333333333357  0.3817991009012260   F   F   F
  0.3333333333333357  0.0833333333333357  0.3817991009012260   F   F   F
  0.4157180468782697  0.6655732845144600  0.4842453108402441   T   T   T
  0.5833333333333357  0.5833333333333357  0.3817991009012260   F   F   F
  0.5833333333333357  0.3333333333333357  0.3817991009012260   F   F   F
  0.3333333333333357  0.3333333333333357  0.3817991009012260   F   F   F
  0.1641603579812737  0.4210277372235556  0.4808155136740406   T   T   T
  0.4155785687059900  0.1673478729115543  0.4775873943951339   T   T   T
  0.5833333333333357  0.0833333333333357  0.3817991009012260   F   F   F
  0.3333333333333357  0.5833333333333357  0.3817991009012260   F   F   F
  0.1637776009560649  0.9158759287202061  0.4800188751899311   T   T   T
  0.3473179672268936  0.2991397403434616  0.6144847470189865   T   T   T
  0.3370083400577810  0.5833420914600438  0.6185816288948836   T   T   T
  0.0784436231868013  0.5833530199351529  0.6169350660091844   T   T   T
  0.8230431221543002  0.8431834489488998  0.6184445234264432   T   T   T
  0.3176327093914992  0.8599558348976339  0.6189425143154499   T   T   T
  0.8358423199613350  0.5734824367314709  0.6151698501666570   T   T   T
  0.8382365005071503  0.0980022468496670  0.6142371809060937   T   T   T
  0.5923745213176681  0.5745211208651346  0.6162852093640110   T   T   T
  0.2446447542703671  0.0096251270945190  0.5680468428048370   T   T   T
  0.5072951869198454  0.2434216446296683  0.5683094847537457   T   T   T
  0.9185376603191281  0.9134350174673732  0.4786032338420713   T   T   T
  0.4977603133997185  0.0031770417431155  0.5686661931289263   T   T   T
  0.2468670997959226  0.2410888360138398  0.5671900561745979   T   T   T
  0.7426249917333680  0.7540547763757172  0.5742011498313521   T   T   T
  0.2397060702887331  0.7595559424719059  0.5770797828818819   T   T   T
  0.1649162767542460  0.6672419107060122  0.4851089552324169   T   T   T
  0.5051447900906464  0.4883218369798241  0.5746617214733777   T   T   T
  0.2543639293213796  0.4924236195803054  0.5773330466649553   T   T   T
 -0.0016423577308162  0.7586795953367023  0.5758970331053107   T   T   T
  0.5003290243972413  0.7603619943036410  0.5798782537776231   T   T   T
  0.0064280367261673  0.4883842187092762  0.5725113288000666   T   T   T
  0.7430408041839306  0.0082589426723102  0.5738415904747750   T   T   T
  0.9175248381865130  0.6667555676077414  0.4783742626994518   T   T   T
  0.0025567778704934  0.2478412481841230  0.5614184542788023   T   T   T
  0.7533401171864782  0.2533340093095381  0.5659400933591467   T   T   T
  0.9162370497479194  0.4190032407669614  0.4771120185010498   T   T   T
  0.6691934439123660  0.6662732091831072  0.4813972068689439   T   T   T
  0.7560641842387921  0.4906479792993426  0.5697373507233504   T   T   T
  0.0009195891153505  0.0037343523452843  0.5671087735941280   T   T   T
  0.9180357788051354  0.1667247831217708  0.4737913918736323   T   T   T
  0.1652806099573304  0.1672694540914214  0.4762648594108992   T   T   T
  0.4148159563521767  0.4192991480646820  0.4800132738022207   T   T   T
 
  0.00000000E+00  0.00000000E+00  0.00000000E+00
  0.00000000E+00  0.00000000E+00  0.00000000E+00
  0.00000000E+00  0.00000000E+00  0.00000000E+00
  0.00000000E+00  0.00000000E+00  0.00000000E+00
  0.00000000E+00  0.00000000E+00  0.00000000E+00
  0.00000000E+00  0.00000000E+00  0.00000000E+00
  0.00000000E+00  0.00000000E+00  0.00000000E+00
  0.00000000E+00  0.00000000E+00  0.00000000E+00
  0.00000000E+00  0.00000000E+00  0.00000000E+00
  0.00000000E+00  0.00000000E+00  0.00000000E+00
  0.00000000E+00  0.00000000E+00  0.00000000E+00
  0.00000000E+00  0.00000000E+00  0.00000000E+00
  0.00000000E+00  0.00000000E+00  0.00000000E+00
  0.00000000E+00  0.00000000E+00  0.00000000E+00
  0.00000000E+00  0.00000000E+00  0.00000000E+00
  0.00000000E+00  0.00000000E+00  0.00000000E+00
  0.00000000E+00  0.00000000E+00  0.00000000E+00
  0.00000000E+00  0.00000000E+00  0.00000000E+00
  0.00000000E+00  0.00000000E+00  0.00000000E+00
  0.00000000E+00  0.00000000E+00  0.00000000E+00
  0.00000000E+00  0.00000000E+00  0.00000000E+00
  0.00000000E+00  0.00000000E+00  0.00000000E+00
  0.00000000E+00  0.00000000E+00  0.00000000E+00
  0.00000000E+00  0.00000000E+00  0.00000000E+00
  0.00000000E+00  0.00000000E+00  0.00000000E+00
  0.00000000E+00  0.00000000E+00  0.00000000E+00
  0.00000000E+00  0.00000000E+00  0.00000000E+00
  0.00000000E+00  0.00000000E+00  0.00000000E+00
  0.00000000E+00  0.00000000E+00  0.00000000E+00
  0.00000000E+00  0.00000000E+00  0.00000000E+00
  0.00000000E+00  0.00000000E+00  0.00000000E+00
  0.00000000E+00  0.00000000E+00  0.00000000E+00
  0.00000000E+00  0.00000000E+00  0.00000000E+00
  0.00000000E+00  0.00000000E+00  0.00000000E+00
  0.00000000E+00  0.00000000E+00  0.00000000E+00
  0.00000000E+00  0.00000000E+00  0.00000000E+00
  0.00000000E+00  0.00000000E+00  0.00000000E+00
  0.00000000E+00  0.00000000E+00  0.00000000E+00
  0.00000000E+00  0.00000000E+00  0.00000000E+00
  0.00000000E+00  0.00000000E+00  0.00000000E+00
  0.00000000E+00  0.00000000E+00  0.00000000E+00
  0.00000000E+00  0.00000000E+00  0.00000000E+00
  0.00000000E+00  0.00000000E+00  0.00000000E+00
  0.00000000E+00  0.00000000E+00  0.00000000E+00
  0.00000000E+00  0.00000000E+00  0.00000000E+00
  0.00000000E+00  0.00000000E+00  0.00000000E+00
  0.00000000E+00  0.00000000E+00  0.00000000E+00
  0.00000000E+00  0.00000000E+00  0.00000000E+00
  0.00000000E+00  0.00000000E+00  0.00000000E+00
  0.00000000E+00  0.00000000E+00  0.00000000E+00
  0.00000000E+00  0.00000000E+00  0.00000000E+00
  0.00000000E+00  0.00000000E+00  0.00000000E+00
  0.00000000E+00  0.00000000E+00  0.00000000E+00
  0.00000000E+00  0.00000000E+00  0.00000000E+00
  0.00000000E+00  0.00000000E+00  0.00000000E+00
  0.00000000E+00  0.00000000E+00  0.00000000E+00
