Au  O Pd                                
   1.00000000000000     
    11.0025815152626798    0.0000000000000000    0.0000000000000000
     5.5012907576313399    9.5285150994265617    0.0000000000000000
     0.0000000000000000    0.0000000000000000   26.1917850942952910
   Au   O    Pd
    24     8    24
Selective dynamics
Direct
  0.2485412350407014  0.0095118188157366  0.5644820987297468   T   T   T
  0.9139265135198179  0.4200379409786214  0.4741288796146301   T   T   T
  0.0236883680400512  0.2151946397981025  0.6117653308422607   T   T   T
  0.8333333333333357  0.8333333333333357  0.3817991009012260   F   F   F
  0.0833333333333357  0.5833333333333357  0.3817991009012260   F   F   F
  0.6680668095146185  0.9139357536506630  0.4756371548728455   T   T   T
  0.0059558859599200  0.4946595151582265  0.5634248653066071   T   T   T
  0.9172494809767868  0.1648053474120704  0.4773478920397575   T   T   T
  0.4875247490819428  0.2616611226633167  0.5621537223973087   T   T   T
  0.3333333333333357  0.0833333333333357  0.3817991009012260   F   F   F
  0.1658414144206327  0.1676343159931194  0.4722870806862094   T   T   T
  0.7751897260099220  0.2089953289329196  0.6077892986257124   T   T   T
  0.5833333333333357  0.3333333333333357  0.3817991009012260   F   F   F
  0.1684296422918989  0.4182392167641597  0.4729155417682955   T   T   T
  0.8333333333333357  0.3333333333333357  0.3817991009012260   F   F   F
  0.7622031699349644  0.0000305847699044  0.5636842259128710   T   T   T
  0.6661597790027389  0.1682776908402648  0.4719297234877857   T   T   T
  0.1649192756589444  0.6738220620425088  0.4725740227708887   T   T   T
  0.2357653483707738  0.5234268169849633  0.5674319856185294   T   T   T
  0.4980820516938287  0.7561707417261574  0.5685806106499657   T   T   T
  0.5833333333333357  0.8333333333333357  0.3817991009012260   F   F   F
  0.4899522550769240  0.5159896331833604  0.5727078128246507   T   T   T
  0.5833333333333357  0.5833333333333357  0.3817991009012260   F   F   F
  0.6665487503348625  0.4177034382310830  0.4845738176133635   T   T   T
  0.1349701962750961  0.3151704096281703  0.6238871007361194   T   T   T
  0.1098157949847395  0.8645692790645534  0.6180942809883698   T   T   T
  0.1307880784571442  0.6089993313039614  0.6341791013956548   T   T   T
  0.8061840265305834  0.8125956935646358  0.6424306726006526   T   T   T
  0.8328706070982631  0.5803821628478621  0.6154468739567404   T   T   T
  0.5614908196525057  0.3427290837540762  0.6223412255547337   T   T   T
  0.5766633338128341  0.0750435824749353  0.6123197737908261   T   T   T
  0.8181888033367816  0.3569556252123803  0.6346026450817127   T   T   T
  0.5833333333333357  0.0833333333333357  0.3817991009012260   F   F   F
  0.7469699036296792  0.7597518765470669  0.5782194972064136   T   T   T
  0.0047978899090435  0.0050913338847197  0.5626433579117273   T   T   T
  0.2480897896103436  0.7627342025453484  0.5611194809547713   T   T   T
  0.1681836965210342  0.9184712607967614  0.4696971263846945   T   T   T
  0.3333333333333357  0.8333333333333357  0.3817991009012260   F   F   F
  0.9186492232844991  0.9166482729209962  0.4744338070173568   T   T   T
  0.0833333333333357  0.3333333333333357  0.3817991009012260   F   F   F
  0.3333333333333357  0.5833333333333357  0.3817991009012260   F   F   F
  0.9159124037949848  0.6694978886114902  0.4782085683860427   T   T   T
  0.4135038751992522  0.4233316817215011  0.4752135517438305   T   T   T
  0.2538340860685371  0.2480115628200235  0.5631295855277179   T   T   T
  0.3333333333333357  0.3333333333333357  0.3817991009012260   F   F   F
  0.0833333333333357  0.8333333333333357  0.3817991009012260   F   F   F
  0.4994593166863568  0.9976622320542120  0.5638654192029725   T   T   T
  0.0833333333333357  0.0833333333333357  0.3817991009012260   F   F   F
  0.8333333333333357  0.0833333333333357  0.3817991009012260   F   F   F
  0.8333333333333357  0.5833333333333357  0.3817991009012260   F   F   F
  0.6708464532975970  0.6656605577375631  0.4823958229576719   T   T   T
  0.4188858210275593  0.6687796132782431  0.4764955435580884   T   T   T
  0.7429415188415357  0.4988889872640180  0.5754682696117288   T   T   T
  0.4179756215992267  0.9142398085007873  0.4754915396953927   T   T   T
  0.4174669959346782  0.1674233162673420  0.4738389101544212   T   T   T
 -0.0218770646294137  0.7994895915723416  0.6292477572317885   T   T   T
 
  0.00000000E+00  0.00000000E+00  0.00000000E+00
  0.00000000E+00  0.00000000E+00  0.00000000E+00
  0.00000000E+00  0.00000000E+00  0.00000000E+00
  0.00000000E+00  0.00000000E+00  0.00000000E+00
  0.00000000E+00  0.00000000E+00  0.00000000E+00
  0.00000000E+00  0.00000000E+00  0.00000000E+00
  0.00000000E+00  0.00000000E+00  0.00000000E+00
  0.00000000E+00  0.00000000E+00  0.00000000E+00
  0.00000000E+00  0.00000000E+00  0.00000000E+00
  0.00000000E+00  0.00000000E+00  0.00000000E+00
  0.00000000E+00  0.00000000E+00  0.00000000E+00
  0.00000000E+00  0.00000000E+00  0.00000000E+00
  0.00000000E+00  0.00000000E+00  0.00000000E+00
  0.00000000E+00  0.00000000E+00  0.00000000E+00
  0.00000000E+00  0.00000000E+00  0.00000000E+00
  0.00000000E+00  0.00000000E+00  0.00000000E+00
  0.00000000E+00  0.00000000E+00  0.00000000E+00
  0.00000000E+00  0.00000000E+00  0.00000000E+00
  0.00000000E+00  0.00000000E+00  0.00000000E+00
  0.00000000E+00  0.00000000E+00  0.00000000E+00
  0.00000000E+00  0.00000000E+00  0.00000000E+00
  0.00000000E+00  0.00000000E+00  0.00000000E+00
  0.00000000E+00  0.00000000E+00  0.00000000E+00
  0.00000000E+00  0.00000000E+00  0.00000000E+00
  0.00000000E+00  0.00000000E+00  0.00000000E+00
  0.00000000E+00  0.00000000E+00  0.00000000E+00
  0.00000000E+00  0.00000000E+00  0.00000000E+00
  0.00000000E+00  0.00000000E+00  0.00000000E+00
  0.00000000E+00  0.00000000E+00  0.00000000E+00
  0.00000000E+00  0.00000000E+00  0.00000000E+00
  0.00000000E+00  0.00000000E+00  0.00000000E+00
  0.00000000E+00  0.00000000E+00  0.00000000E+00
  0.00000000E+00  0.00000000E+00  0.00000000E+00
  0.00000000E+00  0.00000000E+00  0.00000000E+00
  0.00000000E+00  0.00000000E+00  0.00000000E+00
  0.00000000E+00  0.00000000E+00  0.00000000E+00
  0.00000000E+00  0.00000000E+00  0.00000000E+00
  0.00000000E+00  0.00000000E+00  0.00000000E+00
  0.00000000E+00  0.00000000E+00  0.00000000E+00
  0.00000000E+00  0.00000000E+00  0.00000000E+00
  0.00000000E+00  0.00000000E+00  0.00000000E+00
  0.00000000E+00  0.00000000E+00  0.00000000E+00
  0.00000000E+00  0.00000000E+00  0.00000000E+00
  0.00000000E+00  0.00000000E+00  0.00000000E+00
  0.00000000E+00  0.00000000E+00  0.00000000E+00
  0.00000000E+00  0.00000000E+00  0.00000000E+00
  0.00000000E+00  0.00000000E+00  0.00000000E+00
  0.00000000E+00  0.00000000E+00  0.00000000E+00
  0.00000000E+00  0.00000000E+00  0.00000000E+00
  0.00000000E+00  0.00000000E+00  0.00000000E+00
  0.00000000E+00  0.00000000E+00  0.00000000E+00
  0.00000000E+00  0.00000000E+00  0.00000000E+00
  0.00000000E+00  0.00000000E+00  0.00000000E+00
  0.00000000E+00  0.00000000E+00  0.00000000E+00
  0.00000000E+00  0.00000000E+00  0.00000000E+00
  0.00000000E+00  0.00000000E+00  0.00000000E+00
