Au  O Pd                                
   1.00000000000000     
    11.0025815152626798    0.0000000000000000    0.0000000000000000
     5.5012907576313399    9.5285150994265617    0.0000000000000000
     0.0000000000000000    0.0000000000000000   26.1917850942952910
   Au   O    Pd
    24     8    24
Selective dynamics
Direct
  0.2423552873440171  0.0098086070315231  0.5642678819017908   T   T   T
  0.9140531934523928  0.4191135320034016  0.4773768573595524   T   T   T
  0.0235043750902922  0.2178978551019800  0.6144176871105077   T   T   T
  0.8333333333333357  0.8333333333333357  0.3817991009012260   F   F   F
  0.0833333333333357  0.5833333333333357  0.3817991009012260   F   F   F
  0.6699504135096568  0.9121588981181808  0.4781985342449790   T   T   T
  0.0009334720857298  0.4949854320360120  0.5661098296362842   T   T   T
  0.9170281238065041  0.1641851250613168  0.4751998345553681   T   T   T
  0.4887762981169932  0.2537703885594917  0.5639829189815040   T   T   T
  0.3333333333333357  0.0833333333333357  0.3817991009012260   F   F   F
  0.1663249092864268  0.1652622776371646  0.4715704240085465   T   T   T
  0.7693356762123505  0.2291346738001427  0.5985269425596743   T   T   T
  0.5833333333333357  0.3333333333333357  0.3817991009012260   F   F   F
  0.1686213642732937  0.4151188329025410  0.4719347193210334   T   T   T
  0.8333333333333357  0.3333333333333357  0.3817991009012260   F   F   F
  0.7580923360519803  0.0044105911489660  0.5756557409675154   T   T   T
  0.6684228081282635  0.1634620794208103  0.4755652970732462   T   T   T
  0.1645773911931107  0.6720685894864107  0.4721229594143498   T   T   T
  0.2481529623454252  0.5040313868298132  0.5627648389013586   T   T   T
  0.4929175274542081  0.7564753271835883  0.5667731115067833   T   T   T
  0.5833333333333357  0.8333333333333357  0.3817991009012260   F   F   F
  0.4866835888064003  0.5197730607539233  0.5779332285180790   T   T   T
  0.5833333333333357  0.5833333333333357  0.3817991009012260   F   F   F
  0.6659545923973705  0.4163232208586710  0.4878801837861146   T   T   T
  0.1572123322264996  0.2897051255576599  0.6313721751594767   T   T   T
  0.1071430090070199  0.8642328702197780  0.6163952773811806   T   T   T
  0.1156826368399232  0.5658157171882685  0.6274937319310712   T   T   T
  0.8212259686926268  0.8258968632731166  0.6264376004472887   T   T   T
  0.7855453560459087  0.6127553621553370  0.6232151788683074   T   T   T
  0.5570894557473496  0.3424471305883771  0.6224825008196201   T   T   T
  0.5612281613598117  0.0745529042572321  0.6157963639928544   T   T   T
  0.8172130729788980  0.3620705358078542  0.6359797121006305   T   T   T
  0.5833333333333357  0.0833333333333357  0.3817991009012260   F   F   F
  0.7423427781363455  0.7561632077296868  0.5716790979520734   T   T   T
 -0.0001001832237784  0.0081391643100391  0.5609551559135287   T   T   T
  0.2457655234604540  0.7595958565683649  0.5611797299639438   T   T   T
  0.1688965990581521  0.9154225544914688  0.4686743457752836   T   T   T
  0.3333333333333357  0.8333333333333357  0.3817991009012260   F   F   F
  0.9193743302658345  0.9142732851848165  0.4751124027476742   T   T   T
  0.0833333333333357  0.3333333333333357  0.3817991009012260   F   F   F
  0.3333333333333357  0.5833333333333357  0.3817991009012260   F   F   F
  0.9161797876384312  0.6671504197684018  0.4763405330371012   T   T   T
  0.4156945498848345  0.4185836987522966  0.4752205086433249   T   T   T
  0.2461059960059611  0.2491813690582753  0.5645745681151091   T   T   T
  0.3333333333333357  0.3333333333333357  0.3817991009012260   F   F   F
  0.0833333333333357  0.8333333333333357  0.3817991009012260   F   F   F
  0.4922377377551191 -0.0023911124168555  0.5640932745235173   T   T   T
  0.0833333333333357  0.0833333333333357  0.3817991009012260   F   F   F
  0.8333333333333357  0.0833333333333357  0.3817991009012260   F   F   F
  0.8333333333333357  0.5833333333333357  0.3817991009012260   F   F   F
  0.6687967105091807  0.6644182346238956  0.4797965685040597   T   T   T
  0.4177534523563810  0.6663204256073418  0.4765714063949819   T   T   T
  0.7468063208086809  0.5027140054162630  0.5759268729007794   T   T   T
  0.4174736059074449  0.9123853198895143  0.4746875951385947   T   T   T
  0.4177125117645072  0.1643841322287480  0.4743050514960901   T   T   T
  0.0129097048869077  0.7569795445015960  0.6040140003542619   T   T   T
 
  0.00000000E+00  0.00000000E+00  0.00000000E+00
  0.00000000E+00  0.00000000E+00  0.00000000E+00
  0.00000000E+00  0.00000000E+00  0.00000000E+00
  0.00000000E+00  0.00000000E+00  0.00000000E+00
  0.00000000E+00  0.00000000E+00  0.00000000E+00
  0.00000000E+00  0.00000000E+00  0.00000000E+00
  0.00000000E+00  0.00000000E+00  0.00000000E+00
  0.00000000E+00  0.00000000E+00  0.00000000E+00
  0.00000000E+00  0.00000000E+00  0.00000000E+00
  0.00000000E+00  0.00000000E+00  0.00000000E+00
  0.00000000E+00  0.00000000E+00  0.00000000E+00
  0.00000000E+00  0.00000000E+00  0.00000000E+00
  0.00000000E+00  0.00000000E+00  0.00000000E+00
  0.00000000E+00  0.00000000E+00  0.00000000E+00
  0.00000000E+00  0.00000000E+00  0.00000000E+00
  0.00000000E+00  0.00000000E+00  0.00000000E+00
  0.00000000E+00  0.00000000E+00  0.00000000E+00
  0.00000000E+00  0.00000000E+00  0.00000000E+00
  0.00000000E+00  0.00000000E+00  0.00000000E+00
  0.00000000E+00  0.00000000E+00  0.00000000E+00
  0.00000000E+00  0.00000000E+00  0.00000000E+00
  0.00000000E+00  0.00000000E+00  0.00000000E+00
  0.00000000E+00  0.00000000E+00  0.00000000E+00
  0.00000000E+00  0.00000000E+00  0.00000000E+00
  0.00000000E+00  0.00000000E+00  0.00000000E+00
  0.00000000E+00  0.00000000E+00  0.00000000E+00
  0.00000000E+00  0.00000000E+00  0.00000000E+00
  0.00000000E+00  0.00000000E+00  0.00000000E+00
  0.00000000E+00  0.00000000E+00  0.00000000E+00
  0.00000000E+00  0.00000000E+00  0.00000000E+00
  0.00000000E+00  0.00000000E+00  0.00000000E+00
  0.00000000E+00  0.00000000E+00  0.00000000E+00
  0.00000000E+00  0.00000000E+00  0.00000000E+00
  0.00000000E+00  0.00000000E+00  0.00000000E+00
  0.00000000E+00  0.00000000E+00  0.00000000E+00
  0.00000000E+00  0.00000000E+00  0.00000000E+00
  0.00000000E+00  0.00000000E+00  0.00000000E+00
  0.00000000E+00  0.00000000E+00  0.00000000E+00
  0.00000000E+00  0.00000000E+00  0.00000000E+00
  0.00000000E+00  0.00000000E+00  0.00000000E+00
  0.00000000E+00  0.00000000E+00  0.00000000E+00
  0.00000000E+00  0.00000000E+00  0.00000000E+00
  0.00000000E+00  0.00000000E+00  0.00000000E+00
  0.00000000E+00  0.00000000E+00  0.00000000E+00
  0.00000000E+00  0.00000000E+00  0.00000000E+00
  0.00000000E+00  0.00000000E+00  0.00000000E+00
  0.00000000E+00  0.00000000E+00  0.00000000E+00
  0.00000000E+00  0.00000000E+00  0.00000000E+00
  0.00000000E+00  0.00000000E+00  0.00000000E+00
  0.00000000E+00  0.00000000E+00  0.00000000E+00
  0.00000000E+00  0.00000000E+00  0.00000000E+00
  0.00000000E+00  0.00000000E+00  0.00000000E+00
  0.00000000E+00  0.00000000E+00  0.00000000E+00
  0.00000000E+00  0.00000000E+00  0.00000000E+00
  0.00000000E+00  0.00000000E+00  0.00000000E+00
  0.00000000E+00  0.00000000E+00  0.00000000E+00
