Au Pd                                   
   1.00000000000000     
    11.0025815152626798    0.0000000000000000    0.0000000000000000
     5.5012907576313399    9.5285150994265617    0.0000000000000000
     0.0000000000000000    0.0000000000000000   24.4917850942952882
   Au   Pd
    24    24
Direct
  0.0843994690271635  0.0806423561192742  0.3915208807481433
  0.8350178177087813  0.8286724856565649  0.3982126937301252
  0.7492329607323772  0.5017956861880027  0.6037964630175356
  0.7503809293679371  0.2497178145121342  0.6059873128485858
  0.7500943650069228 -0.0007559700690401  0.6035103282203532
  0.6640993405770947  0.1682993902711775  0.4990902621303691
  0.8352570492938713  0.0826063784951922  0.3904254130670544
  0.4963887690663202  0.5032615949927427  0.6005525104446089
  0.4978359938696131  0.2506108508115866  0.6009077208589786
  0.5834504614497484  0.3374099909865802  0.3976757381849733
  0.5842755189431083  0.0806903683829721  0.3966172180903929
  0.1699007634523789  0.9142868156813005  0.4988926959548012
  0.2495537871200208  0.2517281847573838  0.6013275045394875
  0.3322479085318599  0.3356929872277589  0.3983598848136947
  0.7491793357062632  0.7507997440187686  0.6012685067972326
  0.1691548849865823  0.1673146437669035  0.4995363490890242
  0.9153905265670668  0.1685486396714246  0.4994101230881327
  0.3349989908499652  0.0789030680243656  0.3965230253355174
  0.0800460502289343  0.3366505006627602  0.3949180920450536
  0.0037334906984119  0.7477440982158879  0.6028397430403655
  0.2519124927915469 -0.0028287964206849  0.6039161397884675
  0.9162583997670208  0.9148238854924482  0.4992619536262851
  0.0010824581466840  0.2494113127272765  0.6084992942833441
  0.9160076616929246  0.4193544118916519  0.5002919977353183
  0.4182806685958740  0.9160819009199280  0.4992160653229633
  0.4984624007230034  0.7517286480079354  0.5959712963781100
  0.0835868374024586  0.5843546486643536  0.4047067210727816
  0.6637498937902256  0.4197681554240384  0.5013123738825537
  0.8303476975115430  0.5838505891513817  0.4049338606232989
  0.6657176663320482  0.6680763406683463  0.5018276748128280
  0.0004625248680604  0.0002528034416535  0.5966621493506644
  0.8334423003100999  0.3332464669077307  0.4029162025764347
  0.5841927633482958  0.8295660860160374  0.4046263890023998
  0.4180908973601407  0.6656632577933972  0.5007252869390442
  0.5833259324858902  0.5844874794646799  0.4063391520965804
  0.0011478197330644  0.4994306947438436  0.5962016480970893
  0.4148589794669527  0.4187771928819322  0.4989846769528575
  0.0853617661190185  0.8304380318753155  0.4020614756270571
  0.4989853675767146 -0.0000438014475647  0.5937973207546626
  0.4170900838602294  0.1666132894142489  0.4980833323083287
  0.6649937324304026  0.9158232523643275  0.4995265776731965
  0.3352757616584008  0.8297099682615763  0.4030197728216129
  0.2490973947383482  0.5004662468004535  0.5950176274095320
  0.1660622372644524  0.6655288244344068  0.5004036465168007
  0.3326320408674789  0.5858691334388461  0.4048753920329745
  0.1682562738226454  0.4175029839535821  0.4985032925832764
  0.9165758302440011  0.6674877657750915  0.5007079943448147
  0.2501037039080542  0.7499395989800272  0.5962382193422929
 
  0.00000000E+00  0.00000000E+00  0.00000000E+00
  0.00000000E+00  0.00000000E+00  0.00000000E+00
  0.00000000E+00  0.00000000E+00  0.00000000E+00
  0.00000000E+00  0.00000000E+00  0.00000000E+00
  0.00000000E+00  0.00000000E+00  0.00000000E+00
  0.00000000E+00  0.00000000E+00  0.00000000E+00
  0.00000000E+00  0.00000000E+00  0.00000000E+00
  0.00000000E+00  0.00000000E+00  0.00000000E+00
  0.00000000E+00  0.00000000E+00  0.00000000E+00
  0.00000000E+00  0.00000000E+00  0.00000000E+00
  0.00000000E+00  0.00000000E+00  0.00000000E+00
  0.00000000E+00  0.00000000E+00  0.00000000E+00
  0.00000000E+00  0.00000000E+00  0.00000000E+00
  0.00000000E+00  0.00000000E+00  0.00000000E+00
  0.00000000E+00  0.00000000E+00  0.00000000E+00
  0.00000000E+00  0.00000000E+00  0.00000000E+00
  0.00000000E+00  0.00000000E+00  0.00000000E+00
  0.00000000E+00  0.00000000E+00  0.00000000E+00
  0.00000000E+00  0.00000000E+00  0.00000000E+00
  0.00000000E+00  0.00000000E+00  0.00000000E+00
  0.00000000E+00  0.00000000E+00  0.00000000E+00
  0.00000000E+00  0.00000000E+00  0.00000000E+00
  0.00000000E+00  0.00000000E+00  0.00000000E+00
  0.00000000E+00  0.00000000E+00  0.00000000E+00
  0.00000000E+00  0.00000000E+00  0.00000000E+00
  0.00000000E+00  0.00000000E+00  0.00000000E+00
  0.00000000E+00  0.00000000E+00  0.00000000E+00
  0.00000000E+00  0.00000000E+00  0.00000000E+00
  0.00000000E+00  0.00000000E+00  0.00000000E+00
  0.00000000E+00  0.00000000E+00  0.00000000E+00
  0.00000000E+00  0.00000000E+00  0.00000000E+00
  0.00000000E+00  0.00000000E+00  0.00000000E+00
  0.00000000E+00  0.00000000E+00  0.00000000E+00
  0.00000000E+00  0.00000000E+00  0.00000000E+00
  0.00000000E+00  0.00000000E+00  0.00000000E+00
  0.00000000E+00  0.00000000E+00  0.00000000E+00
  0.00000000E+00  0.00000000E+00  0.00000000E+00
  0.00000000E+00  0.00000000E+00  0.00000000E+00
  0.00000000E+00  0.00000000E+00  0.00000000E+00
  0.00000000E+00  0.00000000E+00  0.00000000E+00
  0.00000000E+00  0.00000000E+00  0.00000000E+00
  0.00000000E+00  0.00000000E+00  0.00000000E+00
  0.00000000E+00  0.00000000E+00  0.00000000E+00
  0.00000000E+00  0.00000000E+00  0.00000000E+00
  0.00000000E+00  0.00000000E+00  0.00000000E+00
  0.00000000E+00  0.00000000E+00  0.00000000E+00
  0.00000000E+00  0.00000000E+00  0.00000000E+00
  0.00000000E+00  0.00000000E+00  0.00000000E+00
