Au  O Pd                                
   1.00000000000000     
    11.0025815152626798    0.0000000000000000    0.0000000000000000
     5.5012907576313399    9.5285150994265617    0.0000000000000000
     0.0000000000000000    0.0000000000000000   26.1917850942952910
   Au   O    Pd
    24     8    24
Selective dynamics
Direct
  0.0833333333333357  0.0833333333333357  0.3817991009012260   F   F   F
  0.0833333333333357  0.5833333333333357  0.3817991009012260   F   F   F
  0.3333333333333357  0.0833333333333357  0.3817991009012260   F   F   F
  0.8333333333333357  0.8333333333333357  0.3817991009012260   F   F   F
  0.0833333333333357  0.8333333333333357  0.3817991009012260   F   F   F
  0.9117149037479261  0.4199109618428531  0.4819290253438618   T   T   T
  0.0833333333333357  0.3333333333333357  0.3817991009012260   F   F   F
  0.8333333333333357  0.5833333333333357  0.3817991009012260   F   F   F
  0.1677220250318755  0.1683174208048537  0.4801230946807377   T   T   T
  0.5833333333333357  0.3333333333333357  0.3817991009012260   F   F   F
  0.8333333333333357  0.3333333333333357  0.3817991009012260   F   F   F
  0.4201269615442494  0.9156573114037408  0.4780351137753315   T   T   T
  0.8333333333333357  0.0833333333333357  0.3817991009012260   F   F   F
  0.5833333333333357  0.5833333333333357  0.3817991009012260   F   F   F
  0.4215817931274512  0.4156124165417042  0.4844376549254432   T   T   T
  0.5833333333333357  0.0833333333333357  0.3817991009012260   F   F   F
  0.2538255465111124 -0.0023514328581490  0.5763813372452244   T   T   T
  0.1657779615623722  0.9164553986992505  0.4814919973547611   T   T   T
  0.3333333333333357  0.8333333333333357  0.3817991009012260   F   F   F
  0.1686551021188520  0.6660287559837621  0.4797907287099585   T   T   T
  0.3333333333333357  0.5833333333333357  0.3817991009012260   F   F   F
  0.1671935132347808  0.4187955938215803  0.4844092276090431   T   T   T
  0.3333333333333357  0.3333333333333357  0.3817991009012260   F   F   F
  0.5833333333333357  0.8333333333333357  0.3817991009012260   F   F   F
  0.3296176745829905  0.5897266877854273  0.6200892994247484   T   T   T
  0.3389226635273668  0.3198978887177264  0.6189184789489431   T   T   T
  0.8273390699692268  0.6115587354138530  0.6149896978174419   T   T   T
  0.0761025631077375  0.3252106847049757  0.6169589317736562   T   T   T
  0.5934895729602608  0.3209789301879158  0.6154991991148522   T   T   T
  0.5775815603514318  0.6095065967901611  0.6169886450625010   T   T   T
  0.8266135122625762  0.0775293637093623  0.6109066582844390   T   T   T
  0.0726488499008827  0.8288121588389568  0.6136222454808734   T   T   T
  0.2519696808968199  0.7537084482564350  0.5739588884792903   T   T   T
  0.7443172208223294  0.7564723781703103  0.5624556338083713   T   T   T
  0.7538991631951859  0.2518318847989198  0.5683349344742082   T   T   T
  0.4192441070071690  0.1679683098616311  0.4803819902628653   T   T   T
  0.5019588879717237 -0.0045832472952073  0.5663707667887738   T   T   T
  0.7563186723867837  0.4956244948596755  0.5787290089213806   T   T   T
  0.2406903122573053  0.5030835161663385  0.5793496782747657   T   T   T
 -0.0021153815477703  0.2440865651437515  0.5688177091348359   T   T   T
  0.5060972994349259  0.2348931704280524  0.5732973080482074   T   T   T
  0.2518972141390691  0.2405889559886442  0.5748731169592864   T   T   T
  0.4193253211094360  0.6647273097503517  0.4785104065010823   T   T   T
  0.9159244537966689  0.6678638858010091  0.4769003070547954   T   T   T
  0.9153525527765499  0.9174986789941744  0.4745433355807409   T   T   T
 -0.0058074105860045  0.7472873090026958  0.5652693882377389   T   T   T
  0.6687700116659825  0.9166443077599460  0.4771549327970315   T   T   T
  0.4999924665238096  0.7555336435710711  0.5655479881781039   T   T   T
  0.6671211421370203  0.6655143654141106  0.4749219224337354   T   T   T
  0.0035085580914051 -0.0006872791776578  0.5707678839673929   T   T   T
  0.6674420634074075  0.1669897713703466  0.4760805647437549   T   T   T
  0.7480401057865012 -0.0059192182878246  0.5637690799995264   T   T   T
  0.9141059557294686  0.1672611087590052  0.4797291211959286   T   T   T
  0.6665516230683567  0.4180978617240587  0.4813119811274005   T   T   T
  0.0019499891470683  0.5045329275338667  0.5745557685766680   T   T   T
  0.5022047051383218  0.5033265504448329  0.5772243737036815   T   T   T
 
  0.00000000E+00  0.00000000E+00  0.00000000E+00
  0.00000000E+00  0.00000000E+00  0.00000000E+00
  0.00000000E+00  0.00000000E+00  0.00000000E+00
  0.00000000E+00  0.00000000E+00  0.00000000E+00
  0.00000000E+00  0.00000000E+00  0.00000000E+00
  0.00000000E+00  0.00000000E+00  0.00000000E+00
  0.00000000E+00  0.00000000E+00  0.00000000E+00
  0.00000000E+00  0.00000000E+00  0.00000000E+00
  0.00000000E+00  0.00000000E+00  0.00000000E+00
  0.00000000E+00  0.00000000E+00  0.00000000E+00
  0.00000000E+00  0.00000000E+00  0.00000000E+00
  0.00000000E+00  0.00000000E+00  0.00000000E+00
  0.00000000E+00  0.00000000E+00  0.00000000E+00
  0.00000000E+00  0.00000000E+00  0.00000000E+00
  0.00000000E+00  0.00000000E+00  0.00000000E+00
  0.00000000E+00  0.00000000E+00  0.00000000E+00
  0.00000000E+00  0.00000000E+00  0.00000000E+00
  0.00000000E+00  0.00000000E+00  0.00000000E+00
  0.00000000E+00  0.00000000E+00  0.00000000E+00
  0.00000000E+00  0.00000000E+00  0.00000000E+00
  0.00000000E+00  0.00000000E+00  0.00000000E+00
  0.00000000E+00  0.00000000E+00  0.00000000E+00
  0.00000000E+00  0.00000000E+00  0.00000000E+00
  0.00000000E+00  0.00000000E+00  0.00000000E+00
  0.00000000E+00  0.00000000E+00  0.00000000E+00
  0.00000000E+00  0.00000000E+00  0.00000000E+00
  0.00000000E+00  0.00000000E+00  0.00000000E+00
  0.00000000E+00  0.00000000E+00  0.00000000E+00
  0.00000000E+00  0.00000000E+00  0.00000000E+00
  0.00000000E+00  0.00000000E+00  0.00000000E+00
  0.00000000E+00  0.00000000E+00  0.00000000E+00
  0.00000000E+00  0.00000000E+00  0.00000000E+00
  0.00000000E+00  0.00000000E+00  0.00000000E+00
  0.00000000E+00  0.00000000E+00  0.00000000E+00
  0.00000000E+00  0.00000000E+00  0.00000000E+00
  0.00000000E+00  0.00000000E+00  0.00000000E+00
  0.00000000E+00  0.00000000E+00  0.00000000E+00
  0.00000000E+00  0.00000000E+00  0.00000000E+00
  0.00000000E+00  0.00000000E+00  0.00000000E+00
  0.00000000E+00  0.00000000E+00  0.00000000E+00
  0.00000000E+00  0.00000000E+00  0.00000000E+00
  0.00000000E+00  0.00000000E+00  0.00000000E+00
  0.00000000E+00  0.00000000E+00  0.00000000E+00
  0.00000000E+00  0.00000000E+00  0.00000000E+00
  0.00000000E+00  0.00000000E+00  0.00000000E+00
  0.00000000E+00  0.00000000E+00  0.00000000E+00
  0.00000000E+00  0.00000000E+00  0.00000000E+00
  0.00000000E+00  0.00000000E+00  0.00000000E+00
  0.00000000E+00  0.00000000E+00  0.00000000E+00
  0.00000000E+00  0.00000000E+00  0.00000000E+00
  0.00000000E+00  0.00000000E+00  0.00000000E+00
  0.00000000E+00  0.00000000E+00  0.00000000E+00
  0.00000000E+00  0.00000000E+00  0.00000000E+00
  0.00000000E+00  0.00000000E+00  0.00000000E+00
  0.00000000E+00  0.00000000E+00  0.00000000E+00
  0.00000000E+00  0.00000000E+00  0.00000000E+00
