Au Pd                                   
   1.00000000000000     
    11.0025815152626798    0.0000000000000000    0.0000000000000000
     5.5012907576313399    9.5285150994265617    0.0000000000000000
     0.0000000000000000    0.0000000000000000   24.4917850942952882
   Au   Pd
    24    24
Selective dynamics
Direct
  0.0833333333333357  0.0833333333333357  0.4083001692812189   F   F   F
  0.9154403590131840  0.4154350559179479  0.5076499512001358   T   T   T
 -0.0020734289974709 -0.0011077348837033  0.6103848196403852   T   T   T
  0.0833333333333357  0.5833333333333357  0.4083001692812189   F   F   F
  0.0833333333333357  0.3333333333333357  0.4083001692812189   F   F   F
  0.1709918344738083  0.1635998778503574  0.5095861727608552   T   T   T
 -0.0011884206819491  0.2505592801670227  0.6125544653802932   T   T   T
  0.2501584036090299  0.7503094462284173  0.6160188415913497   T   T   T
  0.1712809412886916  0.4144828022410248  0.5100795577786819   T   T   T
  0.2503070875076320  0.2488303103883575  0.6148022124803399   T   T   T
  0.1668457325671282  0.6662812881676136  0.5078490041841264   T   T   T
  0.2503753639005211  0.5017061684450552  0.6141084162694398   T   T   T
 -0.0036797271947830  0.5044733763687875  0.6120740539099151   T   T   T
  0.1659116264335237  0.9161623754681303  0.5098896530597715   T   T   T
  0.6675885012878986  0.9177849909893242  0.5047172416946304   T   T   T
  0.5014332888834926 -0.0013704704703225  0.6086791838875785   T   T   T
  0.5833333333333357  0.3333333333333357  0.4083001692812189   F   F   F
  0.5003723594342224  0.2502855555833263  0.6072423724719616   T   T   T
  0.4193294646195213  0.6625924504277492  0.5075270268113187   T   T   T
  0.5017478170892091  0.7488822169715202  0.6113164251832998   T   T   T
  0.8333333333333357  0.0833333333333357  0.4083001692812189   F   F   F
  0.7476403681833736  0.2524808246690068  0.6076703374938788   T   T   T
  0.6672751768884089  0.6662187776718185  0.5058490958480049   T   T   T
  0.3333333333333357  0.8333333333333357  0.4083001692812189   F   F   F
  0.4196881012362493  0.4128300804023384  0.5067567486992948   T   T   T
  0.9174223708032536  0.6667271723570581  0.5070795740580184   T   T   T
  0.4194079149590592  0.1653732152740954  0.5060935047043819   T   T   T
  0.5833333333333357  0.0833333333333357  0.4083001692812189   F   F   F
  0.3333333333333357  0.5833333333333357  0.4083001692812189   F   F   F
  0.9160112291414533  0.9171969589560593  0.5066284136777314   T   T   T
 -0.0002208366754767  0.7500191828880510  0.6042460631805013   T   T   T
  0.3333333333333357  0.0833333333333357  0.4083001692812189   F   F   F
  0.5833333333333357  0.5833333333333357  0.4083001692812189   F   F   F
  0.0833333333333357  0.8333333333333357  0.4083001692812189   F   F   F
  0.3333333333333357  0.3333333333333357  0.4083001692812189   F   F   F
  0.7490038740710188  0.5018005819066558  0.6040481232425148   T   T   T
  0.4186529025964649  0.9163536805246900  0.5077640599381216   T   T   T
  0.6673999691360643  0.4133984907940396  0.5065758699233366   T   T   T
  0.8333333333333357  0.8333333333333357  0.4083001692812189   F   F   F
  0.9147983337092738  0.1662015455594275  0.5090755255671852   T   T   T
  0.8333333333333357  0.5833333333333357  0.4083001692812189   F   F   F
  0.8333333333333357  0.3333333333333357  0.4083001692812189   F   F   F
  0.7510011880534312 -0.0026115610958376  0.6022059327056740   T   T   T
  0.6668935746861248  0.1673870863714939  0.5071347549209398   T   T   T
  0.2502920739399271 -0.0008253927794117  0.6071378661585980   T   T   T
  0.5833333333333357  0.8333333333333357  0.4083001692812189   F   F   F
  0.4999477973912218  0.5009486921115051  0.6045549079462869   T   T   T
  0.7508937643276967  0.7507344541241715  0.6033868447729724   T   T   T
 
  0.00000000E+00  0.00000000E+00  0.00000000E+00
  0.00000000E+00  0.00000000E+00  0.00000000E+00
  0.00000000E+00  0.00000000E+00  0.00000000E+00
  0.00000000E+00  0.00000000E+00  0.00000000E+00
  0.00000000E+00  0.00000000E+00  0.00000000E+00
  0.00000000E+00  0.00000000E+00  0.00000000E+00
  0.00000000E+00  0.00000000E+00  0.00000000E+00
  0.00000000E+00  0.00000000E+00  0.00000000E+00
  0.00000000E+00  0.00000000E+00  0.00000000E+00
  0.00000000E+00  0.00000000E+00  0.00000000E+00
  0.00000000E+00  0.00000000E+00  0.00000000E+00
  0.00000000E+00  0.00000000E+00  0.00000000E+00
  0.00000000E+00  0.00000000E+00  0.00000000E+00
  0.00000000E+00  0.00000000E+00  0.00000000E+00
  0.00000000E+00  0.00000000E+00  0.00000000E+00
  0.00000000E+00  0.00000000E+00  0.00000000E+00
  0.00000000E+00  0.00000000E+00  0.00000000E+00
  0.00000000E+00  0.00000000E+00  0.00000000E+00
  0.00000000E+00  0.00000000E+00  0.00000000E+00
  0.00000000E+00  0.00000000E+00  0.00000000E+00
  0.00000000E+00  0.00000000E+00  0.00000000E+00
  0.00000000E+00  0.00000000E+00  0.00000000E+00
  0.00000000E+00  0.00000000E+00  0.00000000E+00
  0.00000000E+00  0.00000000E+00  0.00000000E+00
  0.00000000E+00  0.00000000E+00  0.00000000E+00
  0.00000000E+00  0.00000000E+00  0.00000000E+00
  0.00000000E+00  0.00000000E+00  0.00000000E+00
  0.00000000E+00  0.00000000E+00  0.00000000E+00
  0.00000000E+00  0.00000000E+00  0.00000000E+00
  0.00000000E+00  0.00000000E+00  0.00000000E+00
  0.00000000E+00  0.00000000E+00  0.00000000E+00
  0.00000000E+00  0.00000000E+00  0.00000000E+00
  0.00000000E+00  0.00000000E+00  0.00000000E+00
  0.00000000E+00  0.00000000E+00  0.00000000E+00
  0.00000000E+00  0.00000000E+00  0.00000000E+00
  0.00000000E+00  0.00000000E+00  0.00000000E+00
  0.00000000E+00  0.00000000E+00  0.00000000E+00
  0.00000000E+00  0.00000000E+00  0.00000000E+00
  0.00000000E+00  0.00000000E+00  0.00000000E+00
  0.00000000E+00  0.00000000E+00  0.00000000E+00
  0.00000000E+00  0.00000000E+00  0.00000000E+00
  0.00000000E+00  0.00000000E+00  0.00000000E+00
  0.00000000E+00  0.00000000E+00  0.00000000E+00
  0.00000000E+00  0.00000000E+00  0.00000000E+00
  0.00000000E+00  0.00000000E+00  0.00000000E+00
  0.00000000E+00  0.00000000E+00  0.00000000E+00
  0.00000000E+00  0.00000000E+00  0.00000000E+00
  0.00000000E+00  0.00000000E+00  0.00000000E+00
