Au Pd                                   
   1.00000000000000     
    11.0025815152626798    0.0000000000000000    0.0000000000000000
     5.5012907576313399    9.5285150994265617    0.0000000000000000
     0.0000000000000000    0.0000000000000000   24.4917850942952882
   Au   Pd
    24    24
Selective dynamics
Direct
  0.0833333333333357  0.0833333333333357  0.4083001692812189   F   F   F
  0.9155576458177029  0.9161903676786286  0.5060426669661152   T   T   T
  0.0034647692342679  0.7476962773996119  0.6113003356755999   T   T   T
  0.0833333333333357  0.3333333333333357  0.4083001692812189   F   F   F
  0.1651990828877886  0.1687840109826257  0.5099582809834747   T   T   T
  0.3333333333333357  0.3333333333333357  0.4083001692812189   F   F   F
  0.7506368151107934  0.7479510751134117  0.6106230913764794   T   T   T
  0.1663889638164343  0.6650603842799678  0.5064526509378335   T   T   T
  0.4982576772147478  0.5027990858990050  0.6110110817064469   T   T   T
  0.6685184114016376  0.6656991897686830  0.5090244823666530   T   T   T
  0.8333333333333357  0.5833333333333357  0.4083001692812189   F   F   F
  0.7502751406332590  0.2513735258730089  0.6119338851162529   T   T   T
  0.0010127340105770  0.2506804230238743  0.6104473021773438   T   T   T
  0.6692215311331292  0.1662730091340791  0.5100077675855599   T   T   T
  0.4190415998897806  0.9154930887299109  0.5085172577697976   T   T   T
  0.5833333333333357  0.5833333333333357  0.4083001692812189   F   F   F
  0.3333333333333357  0.8333333333333357  0.4083001692812189   F   F   F
  0.4165645194405820  0.4187573494473896  0.5098280776660804   T   T   T
  0.5833333333333357  0.3333333333333357  0.4083001692812189   F   F   F
  0.4968479351601068  0.0013581363248076  0.6138851867794116   T   T   T
  0.4166467032740932  0.1665679132111194  0.5103028568422231   T   T   T
  0.5833333333333357  0.0833333333333357  0.4083001692812189   F   F   F
  0.1660258041703123  0.9162356722581910  0.5096154374011101   T   T   T
  0.7500868869415991  0.0001441996386177  0.6135667778218908   T   T   T
  0.4185285298401260  0.6646821828544909  0.5088749938408520   T   T   T
  0.0005911403569963  0.4994633977086401  0.6033639164825981   T   T   T
  0.4988069545321563  0.2512118925689322  0.6078584545042069   T   T   T
  0.0833333333333357  0.8333333333333357  0.4083001692812189   F   F   F
  0.1635675861547802  0.4185235058449492  0.5077629623208465   T   T   T
  0.6689704064724159  0.9148178431461307  0.5085344179925129   T   T   T
  0.2500003134172744 -0.0015170330463003  0.6071778749544899   T   T   T
  0.2492944047478264  0.4987439150564840  0.6058802149072837   T   T   T
  0.2494722650179044  0.2529384384568105  0.6068463365905122   T   T   T
  0.3333333333333357  0.0833333333333357  0.4083001692812189   F   F   F
  0.5833333333333357  0.8333333333333357  0.4083001692812189   F   F   F
  0.8333333333333357  0.3333333333333357  0.4083001692812189   F   F   F
  0.4984223997456380  0.7505308731026088  0.6063462179073976   T   T   T
  0.8333333333333357  0.0833333333333357  0.4083001692812189   F   F   F
  0.9163487466801384  0.4163114844424612  0.5080373327932143   T   T   T
  0.6695518968695133  0.4158849580763607  0.5087586691914786   T   T   T
 -0.0000208617765434  0.0001627045173822  0.6058628768228815   T   T   T
  0.9146239091141626  0.1703562638591107  0.5075665042546980   T   T   T
  0.7501368524799531  0.5008903821458609  0.6052285824221896   T   T   T
  0.8333333333333357  0.8333333333333357  0.4083001692812189   F   F   F
  0.3333333333333357  0.5833333333333357  0.4083001692812189   F   F   F
  0.0833333333333357  0.5833333333333357  0.4083001692812189   F   F   F
  0.9171717690724535  0.6651623241110090  0.5073442246021477   T   T   T
  0.2499628295825393  0.7506541907463313  0.6059829001985497   T   T   T
 
  0.00000000E+00  0.00000000E+00  0.00000000E+00
  0.00000000E+00  0.00000000E+00  0.00000000E+00
  0.00000000E+00  0.00000000E+00  0.00000000E+00
  0.00000000E+00  0.00000000E+00  0.00000000E+00
  0.00000000E+00  0.00000000E+00  0.00000000E+00
  0.00000000E+00  0.00000000E+00  0.00000000E+00
  0.00000000E+00  0.00000000E+00  0.00000000E+00
  0.00000000E+00  0.00000000E+00  0.00000000E+00
  0.00000000E+00  0.00000000E+00  0.00000000E+00
  0.00000000E+00  0.00000000E+00  0.00000000E+00
  0.00000000E+00  0.00000000E+00  0.00000000E+00
  0.00000000E+00  0.00000000E+00  0.00000000E+00
  0.00000000E+00  0.00000000E+00  0.00000000E+00
  0.00000000E+00  0.00000000E+00  0.00000000E+00
  0.00000000E+00  0.00000000E+00  0.00000000E+00
  0.00000000E+00  0.00000000E+00  0.00000000E+00
  0.00000000E+00  0.00000000E+00  0.00000000E+00
  0.00000000E+00  0.00000000E+00  0.00000000E+00
  0.00000000E+00  0.00000000E+00  0.00000000E+00
  0.00000000E+00  0.00000000E+00  0.00000000E+00
  0.00000000E+00  0.00000000E+00  0.00000000E+00
  0.00000000E+00  0.00000000E+00  0.00000000E+00
  0.00000000E+00  0.00000000E+00  0.00000000E+00
  0.00000000E+00  0.00000000E+00  0.00000000E+00
  0.00000000E+00  0.00000000E+00  0.00000000E+00
  0.00000000E+00  0.00000000E+00  0.00000000E+00
  0.00000000E+00  0.00000000E+00  0.00000000E+00
  0.00000000E+00  0.00000000E+00  0.00000000E+00
  0.00000000E+00  0.00000000E+00  0.00000000E+00
  0.00000000E+00  0.00000000E+00  0.00000000E+00
  0.00000000E+00  0.00000000E+00  0.00000000E+00
  0.00000000E+00  0.00000000E+00  0.00000000E+00
  0.00000000E+00  0.00000000E+00  0.00000000E+00
  0.00000000E+00  0.00000000E+00  0.00000000E+00
  0.00000000E+00  0.00000000E+00  0.00000000E+00
  0.00000000E+00  0.00000000E+00  0.00000000E+00
  0.00000000E+00  0.00000000E+00  0.00000000E+00
  0.00000000E+00  0.00000000E+00  0.00000000E+00
  0.00000000E+00  0.00000000E+00  0.00000000E+00
  0.00000000E+00  0.00000000E+00  0.00000000E+00
  0.00000000E+00  0.00000000E+00  0.00000000E+00
  0.00000000E+00  0.00000000E+00  0.00000000E+00
  0.00000000E+00  0.00000000E+00  0.00000000E+00
  0.00000000E+00  0.00000000E+00  0.00000000E+00
  0.00000000E+00  0.00000000E+00  0.00000000E+00
  0.00000000E+00  0.00000000E+00  0.00000000E+00
  0.00000000E+00  0.00000000E+00  0.00000000E+00
  0.00000000E+00  0.00000000E+00  0.00000000E+00
