Au Pd                                   
   1.00000000000000     
    11.0025815152626798    0.0000000000000000    0.0000000000000000
     5.5012907576313399    9.5285150994265617    0.0000000000000000
     0.0000000000000000    0.0000000000000000   24.4917850942952882
   Au   Pd
    24    24
Selective dynamics
Direct
  0.3333333333333357  0.3333333333333357  0.4083001692812189   F   F   F
 -0.0005971907525252  0.2489581008590513  0.6091860573061784   T   T   T
  0.0833333333333357  0.5833333333333357  0.4083001692812189   F   F   F
  0.6668675956337830  0.6679960697979980  0.5102646307941313   T   T   T
  0.8333333333333357  0.5833333333333357  0.4083001692812189   F   F   F
 -0.0037630846246504  0.5050005579560803  0.6096533208664106   T   T   T
  0.0833333333333357  0.8333333333333357  0.4083001692812189   F   F   F
  0.9173179316681774  0.9152652174369135  0.5069512996547715   T   T   T
  0.7519784091916015  0.2497258175587030  0.6112861231619398   T   T   T
  0.4140602619548694  0.6683202972752150  0.5089160515759783   T   T   T
  0.2513466373629101 -0.0027708712575380  0.6074252593099133   T   T   T
  0.5833333333333357  0.5833333333333357  0.4083001692812189   F   F   F
  0.9187986305715226  0.4132226315385344  0.5069786993253654   T   T   T
  0.2493518238467242  0.2496276493473874  0.6104223129741381   T   T   T
  0.3333333333333357  0.5833333333333357  0.4083001692812189   F   F   F
  0.6678684381980702  0.1670908786553247  0.5095042145426769   T   T   T
  0.2480516106226578  0.5035801740773821  0.6090411795985938   T   T   T
  0.5833333333333357  0.0833333333333357  0.4083001692812189   F   F   F
  0.4142696340637094  0.1655633252805221  0.5091044826485465   T   T   T
  0.5833333333333357  0.8333333333333357  0.4083001692812189   F   F   F
  0.5833333333333357  0.3333333333333357  0.4083001692812189   F   F   F
  0.5003246649780188  0.5034147093924527  0.6104343600088092   T   T   T
  0.5003120052191001  0.2492893333056543  0.6134163630729856   T   T   T
  0.7515717732249424 -0.0037339395258682  0.6132456765622059   T   T   T
  0.1663190627827050  0.6650898384917171  0.5087064722483690   T   T   T
  0.1659658079855208  0.4169459156278051  0.5082445151969264   T   T   T
  0.1663038296926593  0.1645750194208440  0.5055830562661184   T   T   T
  0.3333333333333357  0.0833333333333357  0.4083001692812189   F   F   F
  0.9178590847685352  0.1660516225299045  0.5056534492300275   T   T   T
  0.9173784819541997  0.6662854703400358  0.5082123017109423   T   T   T
  0.0833333333333357  0.3333333333333357  0.4083001692812189   F   F   F
  0.0006941298863749 -0.0017121053273164  0.6030890016198323   T   T   T
  0.3333333333333357  0.8333333333333357  0.4083001692812189   F   F   F
 -0.0008084607109539  0.7523442539254983  0.6043797394713836   T   T   T
  0.1666087881894174  0.9194100683687655  0.5062796034083308   T   T   T
  0.8333333333333357  0.3333333333333357  0.4083001692812189   F   F   F
  0.5009024339748804 -0.0014556064911075  0.6055303761284371   T   T   T
  0.2480476503941652  0.7523141957154109  0.6043712194800716   T   T   T
  0.0833333333333357  0.0833333333333357  0.4083001692812189   F   F   F
  0.8333333333333357  0.0833333333333357  0.4083001692812189   F   F   F
  0.5006065590046512  0.7519074016275360  0.6056488924929877   T   T   T
  0.4149160697575245  0.9177276256192339  0.5070523676146427   T   T   T
  0.7495584648058226  0.5015602817397260  0.6059561761182908   T   T   T
  0.8333333333333357  0.8333333333333357  0.4083001692812189   F   F   F
  0.6677746627756939  0.4148727834834510  0.5089582478711246   T   T   T
  0.4160423628082967  0.4163332440934677  0.5104513072171010   T   T   T
  0.6673460382483462  0.9158810851877341  0.5087807214997189   T   T   T
  0.7480877352812983  0.7517706049223776  0.6057664599176383   T   T   T
 
  0.00000000E+00  0.00000000E+00  0.00000000E+00
  0.00000000E+00  0.00000000E+00  0.00000000E+00
  0.00000000E+00  0.00000000E+00  0.00000000E+00
  0.00000000E+00  0.00000000E+00  0.00000000E+00
  0.00000000E+00  0.00000000E+00  0.00000000E+00
  0.00000000E+00  0.00000000E+00  0.00000000E+00
  0.00000000E+00  0.00000000E+00  0.00000000E+00
  0.00000000E+00  0.00000000E+00  0.00000000E+00
  0.00000000E+00  0.00000000E+00  0.00000000E+00
  0.00000000E+00  0.00000000E+00  0.00000000E+00
  0.00000000E+00  0.00000000E+00  0.00000000E+00
  0.00000000E+00  0.00000000E+00  0.00000000E+00
  0.00000000E+00  0.00000000E+00  0.00000000E+00
  0.00000000E+00  0.00000000E+00  0.00000000E+00
  0.00000000E+00  0.00000000E+00  0.00000000E+00
  0.00000000E+00  0.00000000E+00  0.00000000E+00
  0.00000000E+00  0.00000000E+00  0.00000000E+00
  0.00000000E+00  0.00000000E+00  0.00000000E+00
  0.00000000E+00  0.00000000E+00  0.00000000E+00
  0.00000000E+00  0.00000000E+00  0.00000000E+00
  0.00000000E+00  0.00000000E+00  0.00000000E+00
  0.00000000E+00  0.00000000E+00  0.00000000E+00
  0.00000000E+00  0.00000000E+00  0.00000000E+00
  0.00000000E+00  0.00000000E+00  0.00000000E+00
  0.00000000E+00  0.00000000E+00  0.00000000E+00
  0.00000000E+00  0.00000000E+00  0.00000000E+00
  0.00000000E+00  0.00000000E+00  0.00000000E+00
  0.00000000E+00  0.00000000E+00  0.00000000E+00
  0.00000000E+00  0.00000000E+00  0.00000000E+00
  0.00000000E+00  0.00000000E+00  0.00000000E+00
  0.00000000E+00  0.00000000E+00  0.00000000E+00
  0.00000000E+00  0.00000000E+00  0.00000000E+00
  0.00000000E+00  0.00000000E+00  0.00000000E+00
  0.00000000E+00  0.00000000E+00  0.00000000E+00
  0.00000000E+00  0.00000000E+00  0.00000000E+00
  0.00000000E+00  0.00000000E+00  0.00000000E+00
  0.00000000E+00  0.00000000E+00  0.00000000E+00
  0.00000000E+00  0.00000000E+00  0.00000000E+00
  0.00000000E+00  0.00000000E+00  0.00000000E+00
  0.00000000E+00  0.00000000E+00  0.00000000E+00
  0.00000000E+00  0.00000000E+00  0.00000000E+00
  0.00000000E+00  0.00000000E+00  0.00000000E+00
  0.00000000E+00  0.00000000E+00  0.00000000E+00
  0.00000000E+00  0.00000000E+00  0.00000000E+00
  0.00000000E+00  0.00000000E+00  0.00000000E+00
  0.00000000E+00  0.00000000E+00  0.00000000E+00
  0.00000000E+00  0.00000000E+00  0.00000000E+00
  0.00000000E+00  0.00000000E+00  0.00000000E+00
