Au  O Pd                                
   1.00000000000000     
    11.0025815152626798    0.0000000000000000    0.0000000000000000
     5.5012907576313399    9.5285150994265617    0.0000000000000000
     0.0000000000000000    0.0000000000000000   26.1917850942952910
   Au   O    Pd
    24     8    24
Selective dynamics
Direct
  0.0833333333333357  0.0833333333333357  0.3817991009012260   F   F   F
  0.3333333333333357  0.8333333333333357  0.3817991009012260   F   F   F
  0.9179932165883096  0.1674369449463755  0.4774249912181395   T   T   T
  0.8333333333333357  0.8333333333333357  0.3817991009012260   F   F   F
  0.8333333333333357  0.5833333333333357  0.3817991009012260   F   F   F
  0.0833333333333357  0.3333333333333357  0.3817991009012260   F   F   F
  0.9182869713335714  0.4208335087994536  0.4778211601318207   T   T   T
  0.0012283419262725  0.2475528418022952  0.5759369984557842   T   T   T
  0.8333333333333357  0.3333333333333357  0.3817991009012260   F   F   F
  0.0833333333333357  0.5833333333333357  0.3817991009012260   F   F   F
  0.6629573412607228  0.1697877964261119  0.4786929339346051   T   T   T
  0.9182687322713461  0.9137199345712191  0.4788463911679295   T   T   T
  0.8333333333333357  0.0833333333333357  0.3817991009012260   F   F   F
  0.5833333333333357  0.8333333333333357  0.3817991009012260   F   F   F
  0.3333333333333357  0.0833333333333357  0.3817991009012260   F   F   F
  0.1699404401971400  0.1660667588607079  0.4816405204625804   T   T   T
  0.5833333333333357  0.5833333333333357  0.3817991009012260   F   F   F
  0.5833333333333357  0.3333333333333357  0.3817991009012260   F   F   F
  0.3333333333333357  0.3333333333333357  0.3817991009012260   F   F   F
  0.4146782506668151  0.1673970727996663  0.4818712969337280   T   T   T
  0.2270188271353129  0.2602632448296069  0.5981962670331697   T   T   T
  0.5833333333333357  0.0833333333333357  0.3817991009012260   F   F   F
  0.3333333333333357  0.5833333333333357  0.3817991009012260   F   F   F
  0.1674670361357362  0.6647234483880122  0.4796775616703217   T   T   T
  0.3373506030516223  0.0541158552908116  0.6208554878585646   T   T   T
  0.3343595146416308  0.6068155650255382  0.6146500177754509   T   T   T
  0.0640234287031009  0.5820747824872377  0.6194985996428749   T   T   T
  0.3700351527226568  0.3193651311123830  0.6247129797190359   T   T   T
  0.8249706789100041  0.8406111493500845  0.6139377022164600   T   T   T
  0.5868382145697026  0.8285375744981601  0.6107549356469960   T   T   T
  0.8368525155452866  0.0968576683817177  0.6137865363685452   T   T   T
  0.6041464703219233  0.5711863731643555  0.6110290852150300   T   T   T
  0.0067002567352566  0.7558726763495504  0.5784444145243164   T   T   T
  0.2465300969226557  0.7589018815884742  0.5649006310218317   T   T   T
  0.4149539591973790  0.4199134240334995  0.4804793796237565   T   T   T
  0.5056465827792681  0.2488377029280565  0.5690077927905974   T   T   T
  0.1695567174268402  0.9154119492569343  0.4782099346220707   T   T   T
  0.2478551662912497 -0.0049620735919562  0.5689350460136675   T   T   T
  0.4187608500202085  0.6665301263559932  0.4765842051605930   T   T   T
  0.5052430283959944  0.4928150936513396  0.5711805803273650   T   T   T
  0.5016877925761232  0.0066926469880717  0.5708253516095936   T   T   T
  0.4185504728076920  0.9141528665755313  0.4776833143560510   T   T   T
  0.4964756282554921  0.7490307962939668  0.5679416633930705   T   T   T
  0.0833333333333357  0.8333333333333357  0.3817991009012260   F   F   F
  0.0030320176370278  0.4966497774243903  0.5667741177705367   T   T   T
  0.7440128080135874  0.0108723040114521  0.5703825876902120   T   T   T
  0.9150221112516268  0.6695458031078252  0.4786132460238706   T   T   T
  0.6640531932828727  0.4200901451271451  0.4779151955093570   T   T   T
  0.7510381732883818  0.2583555286856486  0.5659759696613276   T   T   T
  0.6657813604580136  0.6694970195784286  0.4755410071724048   T   T   T
  0.7631484314300289  0.4977712698284794  0.5640394069875307   T   T   T
  0.0056595072728729 -0.0007945853137064  0.5685835460028252   T   T   T
  0.6651167962292572  0.9173130415359254  0.4785193872001548   T   T   T
  0.2507360639285870  0.4994349287318438  0.5832193253996830   T   T   T
  0.7553016245356149  0.7447818031770626  0.5665574819835247   T   T   T
  0.1691234089381476  0.4178133349397309  0.4796506772350094   T   T   T
 
  0.00000000E+00  0.00000000E+00  0.00000000E+00
  0.00000000E+00  0.00000000E+00  0.00000000E+00
  0.00000000E+00  0.00000000E+00  0.00000000E+00
  0.00000000E+00  0.00000000E+00  0.00000000E+00
  0.00000000E+00  0.00000000E+00  0.00000000E+00
  0.00000000E+00  0.00000000E+00  0.00000000E+00
  0.00000000E+00  0.00000000E+00  0.00000000E+00
  0.00000000E+00  0.00000000E+00  0.00000000E+00
  0.00000000E+00  0.00000000E+00  0.00000000E+00
  0.00000000E+00  0.00000000E+00  0.00000000E+00
  0.00000000E+00  0.00000000E+00  0.00000000E+00
  0.00000000E+00  0.00000000E+00  0.00000000E+00
  0.00000000E+00  0.00000000E+00  0.00000000E+00
  0.00000000E+00  0.00000000E+00  0.00000000E+00
  0.00000000E+00  0.00000000E+00  0.00000000E+00
  0.00000000E+00  0.00000000E+00  0.00000000E+00
  0.00000000E+00  0.00000000E+00  0.00000000E+00
  0.00000000E+00  0.00000000E+00  0.00000000E+00
  0.00000000E+00  0.00000000E+00  0.00000000E+00
  0.00000000E+00  0.00000000E+00  0.00000000E+00
  0.00000000E+00  0.00000000E+00  0.00000000E+00
  0.00000000E+00  0.00000000E+00  0.00000000E+00
  0.00000000E+00  0.00000000E+00  0.00000000E+00
  0.00000000E+00  0.00000000E+00  0.00000000E+00
  0.00000000E+00  0.00000000E+00  0.00000000E+00
  0.00000000E+00  0.00000000E+00  0.00000000E+00
  0.00000000E+00  0.00000000E+00  0.00000000E+00
  0.00000000E+00  0.00000000E+00  0.00000000E+00
  0.00000000E+00  0.00000000E+00  0.00000000E+00
  0.00000000E+00  0.00000000E+00  0.00000000E+00
  0.00000000E+00  0.00000000E+00  0.00000000E+00
  0.00000000E+00  0.00000000E+00  0.00000000E+00
  0.00000000E+00  0.00000000E+00  0.00000000E+00
  0.00000000E+00  0.00000000E+00  0.00000000E+00
  0.00000000E+00  0.00000000E+00  0.00000000E+00
  0.00000000E+00  0.00000000E+00  0.00000000E+00
  0.00000000E+00  0.00000000E+00  0.00000000E+00
  0.00000000E+00  0.00000000E+00  0.00000000E+00
  0.00000000E+00  0.00000000E+00  0.00000000E+00
  0.00000000E+00  0.00000000E+00  0.00000000E+00
  0.00000000E+00  0.00000000E+00  0.00000000E+00
  0.00000000E+00  0.00000000E+00  0.00000000E+00
  0.00000000E+00  0.00000000E+00  0.00000000E+00
  0.00000000E+00  0.00000000E+00  0.00000000E+00
  0.00000000E+00  0.00000000E+00  0.00000000E+00
  0.00000000E+00  0.00000000E+00  0.00000000E+00
  0.00000000E+00  0.00000000E+00  0.00000000E+00
  0.00000000E+00  0.00000000E+00  0.00000000E+00
  0.00000000E+00  0.00000000E+00  0.00000000E+00
  0.00000000E+00  0.00000000E+00  0.00000000E+00
  0.00000000E+00  0.00000000E+00  0.00000000E+00
  0.00000000E+00  0.00000000E+00  0.00000000E+00
  0.00000000E+00  0.00000000E+00  0.00000000E+00
  0.00000000E+00  0.00000000E+00  0.00000000E+00
  0.00000000E+00  0.00000000E+00  0.00000000E+00
  0.00000000E+00  0.00000000E+00  0.00000000E+00
