Au Pd                                   
   1.00000000000000     
    11.0025815152626798    0.0000000000000000    0.0000000000000000
     5.5012907576313399    9.5285150994265617    0.0000000000000000
     0.0000000000000000    0.0000000000000000   24.4917850942952882
   Au   Pd
    24    24
Direct
  0.0810506398338808  0.0855566944388527  0.3971832470989646
  0.8301221826832640  0.8346456912308070  0.3943258910805132
  0.6657555938461633  0.6672458857178362  0.4993432922079037
  0.7525386215089747  0.2493884985125058  0.6025461371240001
  0.6678752030250674  0.4129172243383103  0.4992595839191759
  0.7499332469180267  0.0005224040575207  0.6043911668351214
  0.5004799814181036  0.7505791206826161  0.6042122080857071
  0.4997497122034490  0.4985476715354403  0.6057570356693873
  0.4173638198938831  0.6669029921701684  0.4985837620890705
  0.5832602337053534  0.5830701453778900  0.3929802139353388
  0.4172318125342806  0.4125263204939371  0.4998210219278215
  0.6627547581056361  0.9204092680719528  0.4991011415484248
  0.1666154305153313  0.9200742345111174  0.4995802089992739
  0.1670756802653819  0.6658340142126005  0.4998617664875136
  0.2506002084608847  0.2520314619632212  0.6006984622329284
  0.2471587301740656  0.7502317579537233  0.6066794133735971
  0.7520092004443322  0.7489948813846902  0.6058277796336048
  0.0851072068016762  0.5798580428901238  0.3951748433648786
  0.0842013877780932  0.8329296028091308  0.3932563877290796
  0.9145597877940543  0.9203707753600169  0.4999900911511177
  0.9171244812145063  0.6659390050417252  0.4998056393404787
  0.3350669531211879  0.0831947342690308  0.3988136938173870
  0.9204295915064038  0.4131747736006799  0.4996398084054432
  0.2488354953014034  0.0024587937830322  0.6022458836836354
  0.0829039085998750  0.3337926581815804  0.4030367833251879
  0.0005439135715556  0.0000169791764360  0.5975981273073772
  0.8329338828452870  0.3331661470890377  0.4017558351987781
 -0.0003557996910039  0.2513450120955240  0.5963524861787287
  0.6659493155192686  0.1661269018461043  0.5005199375424755
  0.7513226242695440  0.4994751970159018  0.5976471083460269
  0.8309159691929694  0.0850736802208701  0.4030476548871603
  0.9171133667661872  0.1667348919975592  0.4996262873234472
  0.8331836348318296  0.5824762156374680  0.4015071275460828
  0.4149938501666195  0.9190816636068595  0.4997512736469096
  0.1674461217204526  0.4150461446762894  0.5002120244452822
  0.3347474799481486  0.3329067471285994  0.4029483753917640
  0.4995747350164912  0.2506418892876970  0.5969688509225682
  0.5841932073279165  0.3313446695996113  0.4026150033332496
  0.5006990213738897  0.0005000602411548  0.5972532579543784
  0.4140555380326010  0.1669255430425750  0.4994414754516160
  0.5840683605800813  0.0840865727266537  0.4028892522951753
  0.0006867529919627  0.7488664059757912  0.5975430243570127
  0.3339895546061112  0.8325838751142053  0.4014590669911680
  0.2484907199793386  0.5005794222664725  0.5979132268449459
  0.1685578684289495  0.1668994046506429  0.4995859824836051
  0.3344482269833554  0.5821354647525082  0.4014306913983137
  0.5826470830383268  0.8324696129641680  0.4019594386731041
 -0.0000092951531601  0.5003208462993606  0.5978590284152754
 
  0.00000000E+00  0.00000000E+00  0.00000000E+00
  0.00000000E+00  0.00000000E+00  0.00000000E+00
  0.00000000E+00  0.00000000E+00  0.00000000E+00
  0.00000000E+00  0.00000000E+00  0.00000000E+00
  0.00000000E+00  0.00000000E+00  0.00000000E+00
  0.00000000E+00  0.00000000E+00  0.00000000E+00
  0.00000000E+00  0.00000000E+00  0.00000000E+00
  0.00000000E+00  0.00000000E+00  0.00000000E+00
  0.00000000E+00  0.00000000E+00  0.00000000E+00
  0.00000000E+00  0.00000000E+00  0.00000000E+00
  0.00000000E+00  0.00000000E+00  0.00000000E+00
  0.00000000E+00  0.00000000E+00  0.00000000E+00
  0.00000000E+00  0.00000000E+00  0.00000000E+00
  0.00000000E+00  0.00000000E+00  0.00000000E+00
  0.00000000E+00  0.00000000E+00  0.00000000E+00
  0.00000000E+00  0.00000000E+00  0.00000000E+00
  0.00000000E+00  0.00000000E+00  0.00000000E+00
  0.00000000E+00  0.00000000E+00  0.00000000E+00
  0.00000000E+00  0.00000000E+00  0.00000000E+00
  0.00000000E+00  0.00000000E+00  0.00000000E+00
  0.00000000E+00  0.00000000E+00  0.00000000E+00
  0.00000000E+00  0.00000000E+00  0.00000000E+00
  0.00000000E+00  0.00000000E+00  0.00000000E+00
  0.00000000E+00  0.00000000E+00  0.00000000E+00
  0.00000000E+00  0.00000000E+00  0.00000000E+00
  0.00000000E+00  0.00000000E+00  0.00000000E+00
  0.00000000E+00  0.00000000E+00  0.00000000E+00
  0.00000000E+00  0.00000000E+00  0.00000000E+00
  0.00000000E+00  0.00000000E+00  0.00000000E+00
  0.00000000E+00  0.00000000E+00  0.00000000E+00
  0.00000000E+00  0.00000000E+00  0.00000000E+00
  0.00000000E+00  0.00000000E+00  0.00000000E+00
  0.00000000E+00  0.00000000E+00  0.00000000E+00
  0.00000000E+00  0.00000000E+00  0.00000000E+00
  0.00000000E+00  0.00000000E+00  0.00000000E+00
  0.00000000E+00  0.00000000E+00  0.00000000E+00
  0.00000000E+00  0.00000000E+00  0.00000000E+00
  0.00000000E+00  0.00000000E+00  0.00000000E+00
  0.00000000E+00  0.00000000E+00  0.00000000E+00
  0.00000000E+00  0.00000000E+00  0.00000000E+00
  0.00000000E+00  0.00000000E+00  0.00000000E+00
  0.00000000E+00  0.00000000E+00  0.00000000E+00
  0.00000000E+00  0.00000000E+00  0.00000000E+00
  0.00000000E+00  0.00000000E+00  0.00000000E+00
  0.00000000E+00  0.00000000E+00  0.00000000E+00
  0.00000000E+00  0.00000000E+00  0.00000000E+00
  0.00000000E+00  0.00000000E+00  0.00000000E+00
  0.00000000E+00  0.00000000E+00  0.00000000E+00
