Au Pd                                   
   1.00000000000000     
    11.0025815152626798    0.0000000000000000    0.0000000000000000
     5.5012907576313399    9.5285150994265617    0.0000000000000000
     0.0000000000000000    0.0000000000000000   24.4917850942952882
   Au   Pd
    24    24
Direct
  0.3343009194766367  0.3334141117644283  0.3934644671471684
  0.4175736671988998  0.4140652857254117  0.4995304592655366
  0.4167152324290505  0.1661335723801229  0.4989067678860909
  0.4986393145920944  0.7541162371702678  0.6047848857249903
  0.6662538085790553  0.9178747666594317  0.4997297607355649
  0.1637744153285865  0.9182564642123379  0.4981919497799412
  0.3349052391672594  0.8322339087537957  0.3943364497600714
  0.1656033053146764  0.6662202643903865  0.4987418097424999
  0.7494858300587827  0.0002636282524841  0.6029802478621427
  0.4973432883936370  0.5004603868356342  0.6080618491890504
  0.6680264161179598  0.4130293663673720  0.5015880821947902
  0.1659755306816605  0.1666867854534297  0.4986370738605494
  0.4159917603264320  0.6674312144780649  0.5001735106743753
  0.0024333903883910  0.7505946598688693  0.6022484488469034
  0.8296290376700423  0.8359413942150590  0.3958955041456933
  0.7521951002670023  0.4999440377335030  0.6086104219664196
  0.6652241972761472  0.6676560202400571  0.5012540095207454
  0.9176228024311267  0.4147591437720484  0.5008278209652466
  0.3327930283359659  0.0833975326498238  0.3940426219306459
  0.0823269359180782  0.5819289006814279  0.3941907332445627
  0.0047411796816406  0.4968349267718322  0.6040598009198033
  0.0810366497396172  0.8364803753400560  0.3941174869170986
  0.7527071174474997  0.2481330593374119  0.6050639469880691
  0.9171680891299390  0.6663589867236583  0.4996561075713759
  0.8308761425077656  0.0863557002657795  0.4054648456820915
  0.6692187400008337  0.1647008030322945  0.5020926841663743
  0.8314333161635247  0.5825754404478578  0.4026373000017757
  0.8334815587107600  0.3328934230685746  0.4037872048288026
  0.4153041766353282  0.9168824067262618  0.4985235396749244
  0.5831192737869511  0.8327097990796988  0.4019747563998100
  0.0798163212688986  0.0860635830379411  0.4010216081537699
  0.2506407686820324  0.7514353202867451  0.5972954545971244
  0.4983980811556812  0.2502640144079901  0.5980208640884407
  0.5847323480409581  0.3333376810151673  0.4032527669869739
  0.4992124941777540  0.0009467605150853  0.5969450563582165
  0.5837757824311788  0.0851990860374261  0.4020232909053306
  0.2515474368387793  0.4984095414089016  0.5965738684707443
  0.3347588929807687  0.5826262632592524  0.4009293786526701
  0.2528197781358141  0.2479137976604058  0.5961078098171391
  0.1664741943556263  0.4163950793874919  0.4980266195406488
  0.2500458253820042  0.0011525018041458  0.5956961100549631
  0.9154337715654226  0.9181004391129648  0.5002387936043449
  0.0031481848393291  0.2483344097319093  0.5982260782945521
  0.0807102136250061  0.3338922198701461  0.4010172246433183
  0.0030620176235658 -0.0001313079685606  0.5968290941591754
  0.9147027130145481  0.1653833781904236  0.5013308112142811
  0.5842556613736172  0.5819364926925021  0.4035448177128156
  0.7505660507536716  0.7504081371526803  0.5993458051523790
 
  0.00000000E+00  0.00000000E+00  0.00000000E+00
  0.00000000E+00  0.00000000E+00  0.00000000E+00
  0.00000000E+00  0.00000000E+00  0.00000000E+00
  0.00000000E+00  0.00000000E+00  0.00000000E+00
  0.00000000E+00  0.00000000E+00  0.00000000E+00
  0.00000000E+00  0.00000000E+00  0.00000000E+00
  0.00000000E+00  0.00000000E+00  0.00000000E+00
  0.00000000E+00  0.00000000E+00  0.00000000E+00
  0.00000000E+00  0.00000000E+00  0.00000000E+00
  0.00000000E+00  0.00000000E+00  0.00000000E+00
  0.00000000E+00  0.00000000E+00  0.00000000E+00
  0.00000000E+00  0.00000000E+00  0.00000000E+00
  0.00000000E+00  0.00000000E+00  0.00000000E+00
  0.00000000E+00  0.00000000E+00  0.00000000E+00
  0.00000000E+00  0.00000000E+00  0.00000000E+00
  0.00000000E+00  0.00000000E+00  0.00000000E+00
  0.00000000E+00  0.00000000E+00  0.00000000E+00
  0.00000000E+00  0.00000000E+00  0.00000000E+00
  0.00000000E+00  0.00000000E+00  0.00000000E+00
  0.00000000E+00  0.00000000E+00  0.00000000E+00
  0.00000000E+00  0.00000000E+00  0.00000000E+00
  0.00000000E+00  0.00000000E+00  0.00000000E+00
  0.00000000E+00  0.00000000E+00  0.00000000E+00
  0.00000000E+00  0.00000000E+00  0.00000000E+00
  0.00000000E+00  0.00000000E+00  0.00000000E+00
  0.00000000E+00  0.00000000E+00  0.00000000E+00
  0.00000000E+00  0.00000000E+00  0.00000000E+00
  0.00000000E+00  0.00000000E+00  0.00000000E+00
  0.00000000E+00  0.00000000E+00  0.00000000E+00
  0.00000000E+00  0.00000000E+00  0.00000000E+00
  0.00000000E+00  0.00000000E+00  0.00000000E+00
  0.00000000E+00  0.00000000E+00  0.00000000E+00
  0.00000000E+00  0.00000000E+00  0.00000000E+00
  0.00000000E+00  0.00000000E+00  0.00000000E+00
  0.00000000E+00  0.00000000E+00  0.00000000E+00
  0.00000000E+00  0.00000000E+00  0.00000000E+00
  0.00000000E+00  0.00000000E+00  0.00000000E+00
  0.00000000E+00  0.00000000E+00  0.00000000E+00
  0.00000000E+00  0.00000000E+00  0.00000000E+00
  0.00000000E+00  0.00000000E+00  0.00000000E+00
  0.00000000E+00  0.00000000E+00  0.00000000E+00
  0.00000000E+00  0.00000000E+00  0.00000000E+00
  0.00000000E+00  0.00000000E+00  0.00000000E+00
  0.00000000E+00  0.00000000E+00  0.00000000E+00
  0.00000000E+00  0.00000000E+00  0.00000000E+00
  0.00000000E+00  0.00000000E+00  0.00000000E+00
  0.00000000E+00  0.00000000E+00  0.00000000E+00
  0.00000000E+00  0.00000000E+00  0.00000000E+00
