Au  O Pd                                
   1.00000000000000     
    11.0025815152626798    0.0000000000000000    0.0000000000000000
     5.5012907576313399    9.5285150994265617    0.0000000000000000
     0.0000000000000000    0.0000000000000000   26.1917850942952910
   Au   O    Pd
    24     8    24
Selective dynamics
Direct
  0.9181753983865081  0.9163066783382908  0.4744042610517561   T   T   T
  0.0833333333333357  0.8333333333333357  0.3817991009012260   F   F   F
  0.7582315178601539  0.4999996044335333  0.5680137224533038   T   T   T
  0.6645679206560217  0.6695940198534803  0.4766562419160177   T   T   T
  0.8333333333333357  0.5833333333333357  0.3817991009012260   F   F   F
  0.0833333333333357  0.3333333333333357  0.3817991009012260   F   F   F
  0.9171545518799548  0.4147883203240734  0.4749745936510918   T   T   T
  0.0049273929032169  0.2408475775159389  0.5689136416090499   T   T   T
  0.6644157943512549  0.4144771069644237  0.4801713844408282   T   T   T
  0.0833333333333357  0.5833333333333357  0.3817991009012260   F   F   F
 -0.0012027494541112  0.5149103909720636  0.5629801935010911   T   T   T
  0.3333333333333357  0.8333333333333357  0.3817991009012260   F   F   F
  0.7529299923620414 -0.0094046902691967  0.5622872688481312   T   T   T
 -0.0466575864904820  0.7621154879852043  0.6287381883156163   T   T   T
  0.8333333333333357  0.0833333333333357  0.3817991009012260   F   F   F
  0.4173415010310804  0.9146099691262092  0.4720278085070419   T   T   T
  0.5833333333333357  0.5833333333333357  0.3817991009012260   F   F   F
  0.4977611282551596  0.2459196150488328  0.5639561144349843   T   T   T
  0.5833333333333357  0.3333333333333357  0.3817991009012260   F   F   F
  0.5003563498874486 -0.0003219946569681  0.5649859563848483   T   T   T
  0.4170445349394400  0.1705168828006734  0.4716970390373579   T   T   T
  0.3333333333333357  0.5833333333333357  0.3817991009012260   F   F   F
  0.1673616734734335  0.6703097110530399  0.4816226903257841   T   T   T
  0.2474629893480113  0.4965794697008469  0.5666642676683067   T   T   T
  0.1011445203714907  0.3265693816709959  0.6148910501407298   T   T   T
  0.3262502268758499  0.5750507787408776  0.6239768067500290   T   T   T
  0.0798940053681231  0.8395562248378313  0.6236071247669065   T   T   T
  0.8087892485048652  0.7112422040807804  0.6378442458812369   T   T   T
  0.3187956622995290  0.8652734276963486  0.6171439270099108   T   T   T
  0.5943184000443168  0.3151523629416904  0.6195967965412940   T   T   T
  0.5994142956512586  0.5830794325760512  0.6264113441456901   T   T   T
  0.8457239824540559  0.0810910993478088  0.6144844198815453   T   T   T
  0.2555270028291037 -0.0034300068371881  0.5600789377460295   T   T   T
  0.3333333333333357  0.3333333333333357  0.3817991009012260   F   F   F
  0.0833333333333357  0.0833333333333357  0.3817991009012260   F   F   F
  0.1685208562726117  0.4191150979206897  0.4735674343822011   T   T   T
  0.1679897630409854  0.1642975897188498  0.4730542538948631   T   T   T
  0.2523771665484175  0.2473160910110287  0.5627683251872062   T   T   T
  0.5833333333333357  0.0833333333333357  0.3817991009012260   F   F   F
  0.7503019406198318  0.7513419159731373  0.5659083471363379   T   T   T
  0.2509714424242396  0.7455484997208053  0.5791346317187824   T   T   T
  0.5051634137986003  0.4973056079488562  0.5836543712082626   T   T   T
  0.5098507194376352  0.7625160692136259  0.5893488421104389   T   T   T
  0.5833333333333357  0.8333333333333357  0.3817991009012260   F   F   F
  0.3333333333333357  0.0833333333333357  0.3817991009012260   F   F   F
  0.6692839729659992  0.1665351466085500  0.4726925515774505   T   T   T
  0.9168852666827956  0.6694393126641989  0.4742227551960568   T   T   T
  0.8333333333333357  0.3333333333333357  0.3817991009012260   F   F   F
  0.7568598964459107  0.2500484500069066  0.5723029009368040   T   T   T
  0.0090163154958368 -0.0090814980430044  0.5684746430017636   T   T   T
  0.9201750258804088  0.1640974665862687  0.4788715881582948   T   T   T
  0.8333333333333357  0.8333333333333357  0.3817991009012260   F   F   F
  0.6674878495562904  0.9167834659942841  0.4728181231155840   T   T   T
  0.1670195828153340  0.9154996335811779  0.4753927237242369   T   T   T
  0.4165853480558567  0.6678903093934599  0.4918625980873716   T   T   T
  0.4165280540974643  0.4215294521669063  0.4746195771141213   T   T   T
 
  0.00000000E+00  0.00000000E+00  0.00000000E+00
  0.00000000E+00  0.00000000E+00  0.00000000E+00
  0.00000000E+00  0.00000000E+00  0.00000000E+00
  0.00000000E+00  0.00000000E+00  0.00000000E+00
  0.00000000E+00  0.00000000E+00  0.00000000E+00
  0.00000000E+00  0.00000000E+00  0.00000000E+00
  0.00000000E+00  0.00000000E+00  0.00000000E+00
  0.00000000E+00  0.00000000E+00  0.00000000E+00
  0.00000000E+00  0.00000000E+00  0.00000000E+00
  0.00000000E+00  0.00000000E+00  0.00000000E+00
  0.00000000E+00  0.00000000E+00  0.00000000E+00
  0.00000000E+00  0.00000000E+00  0.00000000E+00
  0.00000000E+00  0.00000000E+00  0.00000000E+00
  0.00000000E+00  0.00000000E+00  0.00000000E+00
  0.00000000E+00  0.00000000E+00  0.00000000E+00
  0.00000000E+00  0.00000000E+00  0.00000000E+00
  0.00000000E+00  0.00000000E+00  0.00000000E+00
  0.00000000E+00  0.00000000E+00  0.00000000E+00
  0.00000000E+00  0.00000000E+00  0.00000000E+00
  0.00000000E+00  0.00000000E+00  0.00000000E+00
  0.00000000E+00  0.00000000E+00  0.00000000E+00
  0.00000000E+00  0.00000000E+00  0.00000000E+00
  0.00000000E+00  0.00000000E+00  0.00000000E+00
  0.00000000E+00  0.00000000E+00  0.00000000E+00
  0.00000000E+00  0.00000000E+00  0.00000000E+00
  0.00000000E+00  0.00000000E+00  0.00000000E+00
  0.00000000E+00  0.00000000E+00  0.00000000E+00
  0.00000000E+00  0.00000000E+00  0.00000000E+00
  0.00000000E+00  0.00000000E+00  0.00000000E+00
  0.00000000E+00  0.00000000E+00  0.00000000E+00
  0.00000000E+00  0.00000000E+00  0.00000000E+00
  0.00000000E+00  0.00000000E+00  0.00000000E+00
  0.00000000E+00  0.00000000E+00  0.00000000E+00
  0.00000000E+00  0.00000000E+00  0.00000000E+00
  0.00000000E+00  0.00000000E+00  0.00000000E+00
  0.00000000E+00  0.00000000E+00  0.00000000E+00
  0.00000000E+00  0.00000000E+00  0.00000000E+00
  0.00000000E+00  0.00000000E+00  0.00000000E+00
  0.00000000E+00  0.00000000E+00  0.00000000E+00
  0.00000000E+00  0.00000000E+00  0.00000000E+00
  0.00000000E+00  0.00000000E+00  0.00000000E+00
  0.00000000E+00  0.00000000E+00  0.00000000E+00
  0.00000000E+00  0.00000000E+00  0.00000000E+00
  0.00000000E+00  0.00000000E+00  0.00000000E+00
  0.00000000E+00  0.00000000E+00  0.00000000E+00
  0.00000000E+00  0.00000000E+00  0.00000000E+00
  0.00000000E+00  0.00000000E+00  0.00000000E+00
  0.00000000E+00  0.00000000E+00  0.00000000E+00
  0.00000000E+00  0.00000000E+00  0.00000000E+00
  0.00000000E+00  0.00000000E+00  0.00000000E+00
  0.00000000E+00  0.00000000E+00  0.00000000E+00
  0.00000000E+00  0.00000000E+00  0.00000000E+00
  0.00000000E+00  0.00000000E+00  0.00000000E+00
  0.00000000E+00  0.00000000E+00  0.00000000E+00
  0.00000000E+00  0.00000000E+00  0.00000000E+00
  0.00000000E+00  0.00000000E+00  0.00000000E+00
