Au  O Pd                                
   1.00000000000000     
    11.0025815152626798    0.0000000000000000    0.0000000000000000
     5.5012907576313399    9.5285150994265617    0.0000000000000000
     0.0000000000000000    0.0000000000000000   26.1917850942952910
   Au   O    Pd
    24     8    24
Selective dynamics
Direct
  0.3333333333333357  0.8333333333333357  0.3817991009012260   F   F   F
  0.5833333333333357  0.0833333333333357  0.3817991009012260   F   F   F
  0.2243866305967200  0.2646027953206623  0.6041743335418549   T   T   T
  0.8333333333333357  0.3333333333333357  0.3817991009012260   F   F   F
  0.9915653383834802  0.0050419314841523  0.5667642694677145   T   T   T
  0.7486955324615684  0.0008789134798720  0.5721050359692592   T   T   T
  0.5019098924865251  0.7544162183987183  0.5613340926155199   T   T   T
  0.5833333333333357  0.8333333333333357  0.3817991009012260   F   F   F
  0.7433788160024623  0.5064809148131033  0.5614261245930670   T   T   T
  0.6679053006183597  0.9149388332376734  0.4769003319200182   T   T   T
  0.0833333333333357  0.5833333333333357  0.3817991009012260   F   F   F
  0.0011470462041035  0.4989160769933924  0.5732024666835309   T   T   T
  0.5109110088970291  0.4894981629759887  0.5659617272197580   T   T   T
  0.3333333333333357  0.5833333333333357  0.3817991009012260   F   F   F
  0.9209844338886690  0.9118655420339206  0.4758999758006034   T   T   T
  0.5017870428403324  0.2418815289959735  0.5672504590878015   T   T   T
  0.4156162716882860  0.4132592775896117  0.4771228021751672   T   T   T
  0.5184642124929696  0.9865090339993706  0.5876310396528980   T   T   T
  0.1636859211948256  0.1662827785103667  0.4722466854022001   T   T   T
  0.2561088046450428  0.9962055003220271  0.5611384626355367   T   T   T
  0.4140001643095673  0.1621927221275364  0.4796510783898152   T   T   T
  0.3333333333333357  0.3333333333333357  0.3817991009012260   F   F   F
  0.1657326327450515  0.4157355560208211  0.4864401070031700   T   T   T
  0.4194740599575011  0.6638954698995253  0.4748371731065118   T   T   T
  0.3708624132194056  0.3132390219199617  0.6335131572376463   T   T   T
  0.0980325929120013  0.8265940539945924  0.6163134084830111   T   T   T
  0.3397901242409453  0.0604271511788312  0.6308268296080212   T   T   T
  0.0740862178444005  0.0907663302726331  0.6181051482726161   T   T   T
  0.0633647863763817  0.6110627967103124  0.6274416335988900   T   T   T
  0.8236531473235803  0.3252271987420360  0.6093015802708791   T   T   T
  0.8056673345654595  0.6175019129322394  0.6169623737039031   T   T   T
  0.3478100830654505  0.5977242553197576  0.6203736614508175   T   T   T
  0.1665525704750228  0.6645512600629271  0.4742956328205343   T   T   T
  0.1673694089933804  0.9125282424187434  0.4733632175852797   T   T   T
  0.2606753042893861  0.7464544667795378  0.5669073259457377   T   T   T
  0.7532806921157624  0.7563534702680373  0.5622706935581681   T   T   T
  0.3333333333333357  0.0833333333333357  0.3817991009012260   F   F   F
  0.8333333333333357  0.8333333333333357  0.3817991009012260   F   F   F
  0.5833333333333357  0.3333333333333357  0.3817991009012260   F   F   F
 -0.0020019282487748  0.7518599477417953  0.5722361431979544   T   T   T
  0.0833333333333357  0.8333333333333357  0.3817991009012260   F   F   F
  0.5833333333333357  0.5833333333333357  0.3817991009012260   F   F   F
  0.2537824288760431  0.4941775672188973  0.5937038758065626   T   T   T
  0.7498539904254209  0.2455466280273741  0.5591046807902590   T   T   T
  0.0090708884782359  0.2483865103159419  0.5696530191162170   T   T   T
  0.9209973205963642  0.4137648148370344  0.4754537420114083   T   T   T
  0.4168126757849628  0.9156230001548517  0.4730937252523406   T   T   T
  0.0833333333333357  0.3333333333333357  0.3817991009012260   F   F   F
  0.6731841220175996  0.6630440689903248  0.4716504905046273   T   T   T
  0.8333333333333357  0.0833333333333357  0.3817991009012260   F   F   F
  0.6662045178778114  0.1649831612317984  0.4751270424717387   T   T   T
  0.8333333333333357  0.5833333333333357  0.3817991009012260   F   F   F
  0.9173540567405980  0.1636839999209779  0.4715315186933829   T   T   T
  0.6684223365257340  0.4130600181918412  0.4721699580500849   T   T   T
  0.9193496593425496  0.6634727389009650  0.4737322609285314   T   T   T
  0.0833333333333357  0.0833333333333357  0.3817991009012260   F   F   F
 
  0.00000000E+00  0.00000000E+00  0.00000000E+00
  0.00000000E+00  0.00000000E+00  0.00000000E+00
  0.00000000E+00  0.00000000E+00  0.00000000E+00
  0.00000000E+00  0.00000000E+00  0.00000000E+00
  0.00000000E+00  0.00000000E+00  0.00000000E+00
  0.00000000E+00  0.00000000E+00  0.00000000E+00
  0.00000000E+00  0.00000000E+00  0.00000000E+00
  0.00000000E+00  0.00000000E+00  0.00000000E+00
  0.00000000E+00  0.00000000E+00  0.00000000E+00
  0.00000000E+00  0.00000000E+00  0.00000000E+00
  0.00000000E+00  0.00000000E+00  0.00000000E+00
  0.00000000E+00  0.00000000E+00  0.00000000E+00
  0.00000000E+00  0.00000000E+00  0.00000000E+00
  0.00000000E+00  0.00000000E+00  0.00000000E+00
  0.00000000E+00  0.00000000E+00  0.00000000E+00
  0.00000000E+00  0.00000000E+00  0.00000000E+00
  0.00000000E+00  0.00000000E+00  0.00000000E+00
  0.00000000E+00  0.00000000E+00  0.00000000E+00
  0.00000000E+00  0.00000000E+00  0.00000000E+00
  0.00000000E+00  0.00000000E+00  0.00000000E+00
  0.00000000E+00  0.00000000E+00  0.00000000E+00
  0.00000000E+00  0.00000000E+00  0.00000000E+00
  0.00000000E+00  0.00000000E+00  0.00000000E+00
  0.00000000E+00  0.00000000E+00  0.00000000E+00
  0.00000000E+00  0.00000000E+00  0.00000000E+00
  0.00000000E+00  0.00000000E+00  0.00000000E+00
  0.00000000E+00  0.00000000E+00  0.00000000E+00
  0.00000000E+00  0.00000000E+00  0.00000000E+00
  0.00000000E+00  0.00000000E+00  0.00000000E+00
  0.00000000E+00  0.00000000E+00  0.00000000E+00
  0.00000000E+00  0.00000000E+00  0.00000000E+00
  0.00000000E+00  0.00000000E+00  0.00000000E+00
  0.00000000E+00  0.00000000E+00  0.00000000E+00
  0.00000000E+00  0.00000000E+00  0.00000000E+00
  0.00000000E+00  0.00000000E+00  0.00000000E+00
  0.00000000E+00  0.00000000E+00  0.00000000E+00
  0.00000000E+00  0.00000000E+00  0.00000000E+00
  0.00000000E+00  0.00000000E+00  0.00000000E+00
  0.00000000E+00  0.00000000E+00  0.00000000E+00
  0.00000000E+00  0.00000000E+00  0.00000000E+00
  0.00000000E+00  0.00000000E+00  0.00000000E+00
  0.00000000E+00  0.00000000E+00  0.00000000E+00
  0.00000000E+00  0.00000000E+00  0.00000000E+00
  0.00000000E+00  0.00000000E+00  0.00000000E+00
  0.00000000E+00  0.00000000E+00  0.00000000E+00
  0.00000000E+00  0.00000000E+00  0.00000000E+00
  0.00000000E+00  0.00000000E+00  0.00000000E+00
  0.00000000E+00  0.00000000E+00  0.00000000E+00
  0.00000000E+00  0.00000000E+00  0.00000000E+00
  0.00000000E+00  0.00000000E+00  0.00000000E+00
  0.00000000E+00  0.00000000E+00  0.00000000E+00
  0.00000000E+00  0.00000000E+00  0.00000000E+00
  0.00000000E+00  0.00000000E+00  0.00000000E+00
  0.00000000E+00  0.00000000E+00  0.00000000E+00
  0.00000000E+00  0.00000000E+00  0.00000000E+00
  0.00000000E+00  0.00000000E+00  0.00000000E+00
