Au  O Pd                                
   1.00000000000000     
    11.0025815152626798    0.0000000000000000    0.0000000000000000
     5.5012907576313399    9.5285150994265617    0.0000000000000000
     0.0000000000000000    0.0000000000000000   26.1917850942952910
   Au   O    Pd
    24     8    24
Selective dynamics
Direct
  0.0833333333333357  0.0833333333333357  0.3817991009012260   F   F   F
  0.3333333333333357  0.8333333333333357  0.3817991009012260   F   F   F
  0.0833333333333357  0.8333333333333357  0.3817991009012260   F   F   F
  0.9136809889986419  0.1656498063422466  0.4811187575913158   T   T   T
  0.8333333333333357  0.8333333333333357  0.3817991009012260   F   F   F
  0.0833333333333357  0.3333333333333357  0.3817991009012260   F   F   F
  0.8333333333333357  0.5833333333333357  0.3817991009012260   F   F   F
  0.6648643167197007  0.4210144387122609  0.4841530013141264   T   T   T
  0.0833333333333357  0.5833333333333357  0.3817991009012260   F   F   F
  0.8333333333333357  0.3333333333333357  0.3817991009012260   F   F   F
  0.6650255515272298  0.1640921632675356  0.4875910352965766   T   T   T
  0.1669959988909005  0.9131676151680961  0.4828801814387454   T   T   T
  0.8333333333333357  0.0833333333333357  0.3817991009012260   F   F   F
  0.5833333333333357  0.5833333333333357  0.3817991009012260   F   F   F
  0.3333333333333357  0.0833333333333357  0.3817991009012260   F   F   F
  0.1651060948736358  0.1688457484729163  0.4780603196285076   T   T   T
  0.2600043515161414 -0.0007896258115845  0.5744265922601919   T   T   T
  0.4132460368975172  0.4179265298760619  0.4820988295339674   T   T   T
  0.5833333333333357  0.3333333333333357  0.3817991009012260   F   F   F
  0.4170823257951974  0.1668356905676964  0.4758761280199310   T   T   T
  0.5833333333333357  0.0833333333333357  0.3817991009012260   F   F   F
  0.3333333333333357  0.5833333333333357  0.3817991009012260   F   F   F
  0.1627200073659427  0.6648982076586524  0.4845467376331694   T   T   T
  0.5833333333333357  0.8333333333333357  0.3817991009012260   F   F   F
  0.3143143819210665  0.3220152460724335  0.6194949967800164   T   T   T
  0.3352342801604367  0.5872738476173932  0.6189186130711190   T   T   T
  0.0859390239654350  0.8325665421313130  0.6168922204458606   T   T   T
  0.8216132262957145  0.8323294742874984  0.6163635418062451   T   T   T
  0.8489581444076358  0.5818539697710192  0.6105744712466453   T   T   T
  0.8561044018236621  0.3322075514110436  0.6159215694605633   T   T   T
  0.5783494713178574  0.3398334146805183  0.6197615359540041   T   T   T
  0.8361722098266456  0.0804194175796110  0.6189300571270918   T   T   T
 -0.0021337442407025  0.7467244280558782  0.5731412301557141   T   T   T
  0.2486230704529385  0.2476396703350446  0.5652861210932967   T   T   T
  0.4968575481748404  0.2400785699619283  0.5822273874942020   T   T   T
  0.4153989007346205  0.6665705621022719  0.4790392134189034   T   T   T
  0.7416467322067510  0.7546756965913161  0.5683123566424438   T   T   T
  0.5014626295116696  0.5068748581216778  0.5742352535568872   T   T   T
  0.2564363037126901  0.7540915676209768  0.5745254242012751   T   T   T
  0.3333333333333357  0.3333333333333357  0.3817991009012260   F   F   F
  0.4999774770084448  0.7552249802333165  0.5630911453621338   T   T   T
  0.4172482351547601  0.9141602521592660  0.4745594300916396   T   T   T
  0.9149041083304107  0.9147880659987204  0.4790154080268401   T   T   T
  0.7386978406251108  0.0050606803916630  0.5760040058801079   T   T   T
  0.0041472194417690  0.4983459859090805  0.5612221505378873   T   T   T
  0.9137170230312041  0.6683671348285782  0.4753194089340990   T   T   T
  0.7521146103628215  0.2524959564939972  0.5781295670690411   T   T   T
  0.0096422368140338  0.2515333293191633  0.5662377999090739   T   T   T
  0.9135407893693980  0.4199016769781746  0.4748377298161640   T   T   T
  0.6673080214103115  0.6676179169496544  0.4778450829270621   T   T   T
  0.7427221801782090  0.5076056801238001  0.5742914486887321   T   T   T
  0.0083937299424044  0.0054322537404198  0.5760076868070692   T   T   T
  0.6695789993774562  0.9134930600375561  0.4768566234207799   T   T   T
  0.2367520355914212  0.5029115665838066  0.5798888171700191   T   T   T
  0.1640258232614042  0.4188033843807968  0.4765936733732117   T   T   T
  0.4990085447642578 -0.0010232923864977  0.5621742491149152   T   T   T
 
  0.00000000E+00  0.00000000E+00  0.00000000E+00
  0.00000000E+00  0.00000000E+00  0.00000000E+00
  0.00000000E+00  0.00000000E+00  0.00000000E+00
  0.00000000E+00  0.00000000E+00  0.00000000E+00
  0.00000000E+00  0.00000000E+00  0.00000000E+00
  0.00000000E+00  0.00000000E+00  0.00000000E+00
  0.00000000E+00  0.00000000E+00  0.00000000E+00
  0.00000000E+00  0.00000000E+00  0.00000000E+00
  0.00000000E+00  0.00000000E+00  0.00000000E+00
  0.00000000E+00  0.00000000E+00  0.00000000E+00
  0.00000000E+00  0.00000000E+00  0.00000000E+00
  0.00000000E+00  0.00000000E+00  0.00000000E+00
  0.00000000E+00  0.00000000E+00  0.00000000E+00
  0.00000000E+00  0.00000000E+00  0.00000000E+00
  0.00000000E+00  0.00000000E+00  0.00000000E+00
  0.00000000E+00  0.00000000E+00  0.00000000E+00
  0.00000000E+00  0.00000000E+00  0.00000000E+00
  0.00000000E+00  0.00000000E+00  0.00000000E+00
  0.00000000E+00  0.00000000E+00  0.00000000E+00
  0.00000000E+00  0.00000000E+00  0.00000000E+00
  0.00000000E+00  0.00000000E+00  0.00000000E+00
  0.00000000E+00  0.00000000E+00  0.00000000E+00
  0.00000000E+00  0.00000000E+00  0.00000000E+00
  0.00000000E+00  0.00000000E+00  0.00000000E+00
  0.00000000E+00  0.00000000E+00  0.00000000E+00
  0.00000000E+00  0.00000000E+00  0.00000000E+00
  0.00000000E+00  0.00000000E+00  0.00000000E+00
  0.00000000E+00  0.00000000E+00  0.00000000E+00
  0.00000000E+00  0.00000000E+00  0.00000000E+00
  0.00000000E+00  0.00000000E+00  0.00000000E+00
  0.00000000E+00  0.00000000E+00  0.00000000E+00
  0.00000000E+00  0.00000000E+00  0.00000000E+00
  0.00000000E+00  0.00000000E+00  0.00000000E+00
  0.00000000E+00  0.00000000E+00  0.00000000E+00
  0.00000000E+00  0.00000000E+00  0.00000000E+00
  0.00000000E+00  0.00000000E+00  0.00000000E+00
  0.00000000E+00  0.00000000E+00  0.00000000E+00
  0.00000000E+00  0.00000000E+00  0.00000000E+00
  0.00000000E+00  0.00000000E+00  0.00000000E+00
  0.00000000E+00  0.00000000E+00  0.00000000E+00
  0.00000000E+00  0.00000000E+00  0.00000000E+00
  0.00000000E+00  0.00000000E+00  0.00000000E+00
  0.00000000E+00  0.00000000E+00  0.00000000E+00
  0.00000000E+00  0.00000000E+00  0.00000000E+00
  0.00000000E+00  0.00000000E+00  0.00000000E+00
  0.00000000E+00  0.00000000E+00  0.00000000E+00
  0.00000000E+00  0.00000000E+00  0.00000000E+00
  0.00000000E+00  0.00000000E+00  0.00000000E+00
  0.00000000E+00  0.00000000E+00  0.00000000E+00
  0.00000000E+00  0.00000000E+00  0.00000000E+00
  0.00000000E+00  0.00000000E+00  0.00000000E+00
  0.00000000E+00  0.00000000E+00  0.00000000E+00
  0.00000000E+00  0.00000000E+00  0.00000000E+00
  0.00000000E+00  0.00000000E+00  0.00000000E+00
  0.00000000E+00  0.00000000E+00  0.00000000E+00
  0.00000000E+00  0.00000000E+00  0.00000000E+00
