Au Pd                                   
   1.00000000000000     
    11.0025815152626798    0.0000000000000000    0.0000000000000000
     5.5012907576313399    9.5285150994265617    0.0000000000000000
     0.0000000000000000    0.0000000000000000   24.4917850942952882
   Au   Pd
    24    24
Selective dynamics
Direct
  0.7469173307195059  0.7507605634869615  0.6130784807317894   T   T   T
  0.9164387879298994  0.4192666119561379  0.5133928244253516   T   T   T
  0.8333333333333357  0.8333333333333357  0.4083001692812189   F   F   F
  0.0833333333333357  0.5833333333333357  0.4083001692812189   F   F   F
  0.9209905111179449  0.1653448213059427  0.5083512662887357   T   T   T
  0.0014628324342720  0.4971917959894859  0.6175709899417084   T   T   T
  0.8333333333333357  0.5833333333333357  0.4083001692812189   F   F   F
  0.9185641597414900  0.9165923199898672  0.5084109156681949   T   T   T
  0.0009333853133994  0.7517411847264364  0.6152689283921151   T   T   T
  0.3333333333333357  0.0833333333333357  0.4083001692812189   F   F   F
  0.3333333333333357  0.3333333333333357  0.4083001692812189   F   F   F
  0.2497933706941664 -0.0005933083039818  0.6096176289760832   T   T   T
  0.0833333333333357  0.3333333333333357  0.4083001692812189   F   F   F
  0.1666510372283665  0.4158128325262099  0.5130311262298067   T   T   T
  0.6650867616584591  0.4201461883307410  0.5107922990833650   T   T   T
  0.3333333333333357  0.5833333333333357  0.4083001692812189   F   F   F
  0.1668201282405481  0.6698958723073312  0.5107910591172313   T   T   T
  0.8333333333333357  0.3333333333333357  0.4083001692812189   F   F   F
  0.3333333333333357  0.8333333333333357  0.4083001692812189   F   F   F
  0.6640793065966863  0.9169592638484759  0.5099146666792949   T   T   T
  0.6656276426566212  0.1667916493358621  0.5069578336819919   T   T   T
  0.4168576002742200  0.4173924424329268  0.5105889834745426   T   T   T
  0.5833333333333357  0.8333333333333357  0.4083001692812189   F   F   F
  0.5833333333333357  0.5833333333333357  0.4083001692812189   F   F   F
  0.5833333333333357  0.0833333333333357  0.4083001692812189   F   F   F
  0.1693955927950790  0.9174622501247462  0.5074671518974835   T   T   T
  0.2528771221595477  0.4988155845108252  0.6092737454894773   T   T   T
  0.2522827122464127  0.2482567437710711  0.6073268710506620   T   T   T
 -0.0007699258083230  0.0004733715951776  0.6063904461607784   T   T   T
  0.0833333333333357  0.8333333333333357  0.4083001692812189   F   F   F
  0.9157908354553542  0.6676845291536196  0.5134199416360391   T   T   T
 -0.0009803288097714  0.2491001433228896  0.6079703661111461   T   T   T
  0.4150633529320843  0.1655801855176976  0.5084047818122146   T   T   T
  0.1690012842605152  0.1647593169487548  0.5095248567128651   T   T   T
  0.4993228641235672  0.0010299890394887  0.6061420088165390   T   T   T
  0.8333333333333357  0.0833333333333357  0.4083001692812189   F   F   F
  0.5005921049463785  0.2487336054950333  0.6063901311242186   T   T   T
  0.0833333333333357  0.0833333333333357  0.4083001692812189   F   F   F
  0.4993227474886296  0.5006012359684268  0.6077828867242371   T   T   T
  0.6653327739099162  0.6690496169898006  0.5109737563235910   T   T   T
  0.7475509818132309  0.4993210071328040  0.6093297619281105   T   T   T
  0.7498726660523078  0.2492083976591179  0.6067778405062412   T   T   T
  0.7488620181529729  0.0022161079734696  0.6070006402812983   T   T   T
  0.4996958092244837  0.7484740083457662  0.6059080047434772   T   T   T
  0.4148633597674444  0.9172072050009428  0.5095534052627270   T   T   T
  0.4165514671134573  0.6708588344459924  0.5097604873145051   T   T   T
  0.5833333333333357  0.3333333333333357  0.4083001692812189   F   F   F
  0.2512979515833066  0.7493134452311968  0.6067784017298304   T   T   T
 
  0.00000000E+00  0.00000000E+00  0.00000000E+00
  0.00000000E+00  0.00000000E+00  0.00000000E+00
  0.00000000E+00  0.00000000E+00  0.00000000E+00
  0.00000000E+00  0.00000000E+00  0.00000000E+00
  0.00000000E+00  0.00000000E+00  0.00000000E+00
  0.00000000E+00  0.00000000E+00  0.00000000E+00
  0.00000000E+00  0.00000000E+00  0.00000000E+00
  0.00000000E+00  0.00000000E+00  0.00000000E+00
  0.00000000E+00  0.00000000E+00  0.00000000E+00
  0.00000000E+00  0.00000000E+00  0.00000000E+00
  0.00000000E+00  0.00000000E+00  0.00000000E+00
  0.00000000E+00  0.00000000E+00  0.00000000E+00
  0.00000000E+00  0.00000000E+00  0.00000000E+00
  0.00000000E+00  0.00000000E+00  0.00000000E+00
  0.00000000E+00  0.00000000E+00  0.00000000E+00
  0.00000000E+00  0.00000000E+00  0.00000000E+00
  0.00000000E+00  0.00000000E+00  0.00000000E+00
  0.00000000E+00  0.00000000E+00  0.00000000E+00
  0.00000000E+00  0.00000000E+00  0.00000000E+00
  0.00000000E+00  0.00000000E+00  0.00000000E+00
  0.00000000E+00  0.00000000E+00  0.00000000E+00
  0.00000000E+00  0.00000000E+00  0.00000000E+00
  0.00000000E+00  0.00000000E+00  0.00000000E+00
  0.00000000E+00  0.00000000E+00  0.00000000E+00
  0.00000000E+00  0.00000000E+00  0.00000000E+00
  0.00000000E+00  0.00000000E+00  0.00000000E+00
  0.00000000E+00  0.00000000E+00  0.00000000E+00
  0.00000000E+00  0.00000000E+00  0.00000000E+00
  0.00000000E+00  0.00000000E+00  0.00000000E+00
  0.00000000E+00  0.00000000E+00  0.00000000E+00
  0.00000000E+00  0.00000000E+00  0.00000000E+00
  0.00000000E+00  0.00000000E+00  0.00000000E+00
  0.00000000E+00  0.00000000E+00  0.00000000E+00
  0.00000000E+00  0.00000000E+00  0.00000000E+00
  0.00000000E+00  0.00000000E+00  0.00000000E+00
  0.00000000E+00  0.00000000E+00  0.00000000E+00
  0.00000000E+00  0.00000000E+00  0.00000000E+00
  0.00000000E+00  0.00000000E+00  0.00000000E+00
  0.00000000E+00  0.00000000E+00  0.00000000E+00
  0.00000000E+00  0.00000000E+00  0.00000000E+00
  0.00000000E+00  0.00000000E+00  0.00000000E+00
  0.00000000E+00  0.00000000E+00  0.00000000E+00
  0.00000000E+00  0.00000000E+00  0.00000000E+00
  0.00000000E+00  0.00000000E+00  0.00000000E+00
  0.00000000E+00  0.00000000E+00  0.00000000E+00
  0.00000000E+00  0.00000000E+00  0.00000000E+00
  0.00000000E+00  0.00000000E+00  0.00000000E+00
  0.00000000E+00  0.00000000E+00  0.00000000E+00
