Au  O Pd                                
   1.00000000000000     
    11.0025815152626798    0.0000000000000000    0.0000000000000000
     5.5012907576313399    9.5285150994265617    0.0000000000000000
     0.0000000000000000    0.0000000000000000   26.1917850942952910
   Au   O    Pd
    24     8    24
Selective dynamics
Direct
  0.0833333333333357  0.0833333333333357  0.3817991009012260   F   F   F
  0.5010524993081119  0.7535963483381606  0.5637148223386744   T   T   T
  0.9093388924654047  0.1714064080327416  0.5165659996703477   T   T   T
  0.4977815814774968  0.0008211219010738  0.5659696826635978   T   T   T
  0.4131125042421336  0.6708217672125953  0.4716391904969522   T   T   T
  0.0833333333333357  0.3333333333333357  0.3817991009012260   F   F   F
  0.9217848171556565  0.4019230611504550  0.4781058348572941   T   T   T
  0.5833333333333357  0.0833333333333357  0.3817991009012260   F   F   F
  0.7546090106182040  0.7384427356959418  0.5635835870689484   T   T   T
  0.8333333333333357  0.3333333333333357  0.3817991009012260   F   F   F
  0.9196109269200335  0.6623976261964700  0.4748642385148151   T   T   T
  0.0833333333333357  0.8333333333333357  0.3817991009012260   F   F   F
  0.4891314164890416  0.5044805220973868  0.5636153522508839   T   T   T
  0.9213389481969972  0.9230821874717255  0.4775579019206006   T   T   T
  0.7471952409994561  0.0023134480464884  0.5660771347991767   T   T   T
  0.8333333333333357  0.8333333333333357  0.3817991009012260   F   F   F
  0.6710161913498436  0.1705132127582480  0.4741099769461032   T   T   T
  0.1736303338411942  0.1651920727980568  0.5164359940933099   T   T   T
  0.5833333333333357  0.3333333333333357  0.3817991009012260   F   F   F
  0.2483108613836207  0.4981935710256639  0.5608953472138656   T   T   T
  0.3333333333333357  0.3333333333333357  0.3817991009012260   F   F   F
  0.1666161140017478  0.4086843390894600  0.4745357994143691   T   T   T
  0.2780246327319182  0.2633527785661560  0.6082634204132156   T   T   T
  0.4109576267526374  0.9242271647582072  0.4724435685580043   T   T   T
  0.7992426576332275  0.0678434167421349  0.6355901868380545   T   T   T
  0.0987638565038404  0.0750938605726343  0.6486865306032827   T   T   T
  0.0673493465911999  0.3613148023364824  0.6356638621305537   T   T   T
  0.0765340959384546  0.5871359733492151  0.6120286503102708   T   T   T
  0.1130216718190077  0.7978644045611878  0.6149139273167264   T   T   T
  0.3804204490718491  0.0535086941835659  0.6360960893631100   T   T   T
  0.5373486088020135  0.3332426329416645  0.6198428538015551   T   T   T
  0.6075460556156024  0.5698452809820128  0.6143580580599644   T   T   T
  0.4143430184682093  0.1673839674527253  0.4750634952603326   T   T   T
  0.2429876425304216  0.7700974071677625  0.5590233420277062   T   T   T
  0.1575674198522807  0.9386599680912968  0.4739675502488008   T   T   T
  0.6686871638950953  0.6643191785960253  0.4703282273582434   T   T   T
  0.1650312045429757  0.6706654793913179  0.4714450837541392   T   T   T
  0.3333333333333357  0.5833333333333357  0.3817991009012260   F   F   F
  0.6660699238442805  0.9195770862326135  0.4771249738998027   T   T   T
  0.2660843397864877  0.9791526851605560  0.6037792246046773   T   T   T
  0.3333333333333357  0.0833333333333357  0.3817991009012260   F   F   F
  0.9930002860363394  0.7565324898189070  0.5678199315019766   T   T   T
  0.9928359060317387  0.4881799103087083  0.5757448013586582   T   T   T
  0.0833333333333357  0.5833333333333357  0.3817991009012260   F   F   F
  0.9842908228001537  0.2515425126527752  0.6095523774408862   T   T   T
 -0.0043510371285951  0.0032527750838044  0.6087100899259006   T   T   T
  0.4135219179758221  0.4188761257711660  0.4732142750514526   T   T   T
  0.3333333333333357  0.8333333333333357  0.3817991009012260   F   F   F
  0.8333333333333357  0.0833333333333357  0.3817991009012260   F   F   F
  0.7594395296830712  0.4725560673509789  0.5639038923895263   T   T   T
  0.5833333333333357  0.5833333333333357  0.3817991009012260   F   F   F
  0.7411079811408370  0.2572100666985228  0.6090576372728138   T   T   T
  0.6689825749490074  0.4162088089457249  0.4725890260006335   T   T   T
  0.5833333333333357  0.8333333333333357  0.3817991009012260   F   F   F
  0.4970506004554240  0.2468980910400659  0.5600508199479218   T   T   T
  0.8333333333333357  0.5833333333333357  0.3817991009012260   F   F   F
 
  0.00000000E+00  0.00000000E+00  0.00000000E+00
  0.00000000E+00  0.00000000E+00  0.00000000E+00
  0.00000000E+00  0.00000000E+00  0.00000000E+00
  0.00000000E+00  0.00000000E+00  0.00000000E+00
  0.00000000E+00  0.00000000E+00  0.00000000E+00
  0.00000000E+00  0.00000000E+00  0.00000000E+00
  0.00000000E+00  0.00000000E+00  0.00000000E+00
  0.00000000E+00  0.00000000E+00  0.00000000E+00
  0.00000000E+00  0.00000000E+00  0.00000000E+00
  0.00000000E+00  0.00000000E+00  0.00000000E+00
  0.00000000E+00  0.00000000E+00  0.00000000E+00
  0.00000000E+00  0.00000000E+00  0.00000000E+00
  0.00000000E+00  0.00000000E+00  0.00000000E+00
  0.00000000E+00  0.00000000E+00  0.00000000E+00
  0.00000000E+00  0.00000000E+00  0.00000000E+00
  0.00000000E+00  0.00000000E+00  0.00000000E+00
  0.00000000E+00  0.00000000E+00  0.00000000E+00
  0.00000000E+00  0.00000000E+00  0.00000000E+00
  0.00000000E+00  0.00000000E+00  0.00000000E+00
  0.00000000E+00  0.00000000E+00  0.00000000E+00
  0.00000000E+00  0.00000000E+00  0.00000000E+00
  0.00000000E+00  0.00000000E+00  0.00000000E+00
  0.00000000E+00  0.00000000E+00  0.00000000E+00
  0.00000000E+00  0.00000000E+00  0.00000000E+00
  0.00000000E+00  0.00000000E+00  0.00000000E+00
  0.00000000E+00  0.00000000E+00  0.00000000E+00
  0.00000000E+00  0.00000000E+00  0.00000000E+00
  0.00000000E+00  0.00000000E+00  0.00000000E+00
  0.00000000E+00  0.00000000E+00  0.00000000E+00
  0.00000000E+00  0.00000000E+00  0.00000000E+00
  0.00000000E+00  0.00000000E+00  0.00000000E+00
  0.00000000E+00  0.00000000E+00  0.00000000E+00
  0.00000000E+00  0.00000000E+00  0.00000000E+00
  0.00000000E+00  0.00000000E+00  0.00000000E+00
  0.00000000E+00  0.00000000E+00  0.00000000E+00
  0.00000000E+00  0.00000000E+00  0.00000000E+00
  0.00000000E+00  0.00000000E+00  0.00000000E+00
  0.00000000E+00  0.00000000E+00  0.00000000E+00
  0.00000000E+00  0.00000000E+00  0.00000000E+00
  0.00000000E+00  0.00000000E+00  0.00000000E+00
  0.00000000E+00  0.00000000E+00  0.00000000E+00
  0.00000000E+00  0.00000000E+00  0.00000000E+00
  0.00000000E+00  0.00000000E+00  0.00000000E+00
  0.00000000E+00  0.00000000E+00  0.00000000E+00
  0.00000000E+00  0.00000000E+00  0.00000000E+00
  0.00000000E+00  0.00000000E+00  0.00000000E+00
  0.00000000E+00  0.00000000E+00  0.00000000E+00
  0.00000000E+00  0.00000000E+00  0.00000000E+00
  0.00000000E+00  0.00000000E+00  0.00000000E+00
  0.00000000E+00  0.00000000E+00  0.00000000E+00
  0.00000000E+00  0.00000000E+00  0.00000000E+00
  0.00000000E+00  0.00000000E+00  0.00000000E+00
  0.00000000E+00  0.00000000E+00  0.00000000E+00
  0.00000000E+00  0.00000000E+00  0.00000000E+00
  0.00000000E+00  0.00000000E+00  0.00000000E+00
  0.00000000E+00  0.00000000E+00  0.00000000E+00
