Au  O Pd                                
   1.00000000000000     
    11.0025815152626798    0.0000000000000000    0.0000000000000000
     5.5012907576313399    9.5285150994265617    0.0000000000000000
     0.0000000000000000    0.0000000000000000   26.1917850942952910
   Au   O    Pd
    24     8    24
Selective dynamics
Direct
  0.0833333333333357  0.0833333333333357  0.3817991009012260   F   F   F
  0.5016018043495013  0.7518327155639413  0.5602325801400017   T   T   T
  0.9192194524382470  0.1675643773309384  0.4963082697203360   T   T   T
  0.4972089247930118  0.9989323148268326  0.5649022250699313   T   T   T
  0.4185773853892926  0.6638800279326466  0.4709356216526516   T   T   T
  0.0833333333333357  0.3333333333333357  0.3817991009012260   F   F   F
  0.9208015303500127  0.4115039836625172  0.4806274053114228   T   T   T
  0.5833333333333357  0.0833333333333357  0.3817991009012260   F   F   F
  0.7538597957759637  0.7381640132157525  0.5643532812838563   T   T   T
  0.8333333333333357  0.3333333333333357  0.3817991009012260   F   F   F
  0.9219069098719427  0.6626032179131279  0.4753472918581366   T   T   T
  0.0833333333333357  0.8333333333333357  0.3817991009012260   F   F   F
  0.4930547743156723  0.4985230312680957  0.5656533883759906   T   T   T
  0.9258753494266828  0.9155201987358333  0.4785348369384946   T   T   T
  0.7448646178085945 -0.0062820279516772  0.5648474835054109   T   T   T
  0.8333333333333357  0.8333333333333357  0.3817991009012260   F   F   F
  0.6720549832613694  0.1680664557675884  0.4742004738778038   T   T   T
  0.1782304834073250  0.1627339812432326  0.5052127062611866   T   T   T
  0.5833333333333357  0.3333333333333357  0.3817991009012260   F   F   F
  0.2503120430124724  0.4922140247727536  0.5641012982331876   T   T   T
  0.3333333333333357  0.3333333333333357  0.3817991009012260   F   F   F
  0.1704912211707216  0.4096598026814027  0.4742338894139704   T   T   T
  0.2786292138482844  0.2581440790518122  0.6095514246021463   T   T   T
  0.4154296115859469  0.9200186398466386  0.4711574545410148   T   T   T
  0.8194427342465943  0.0683921030414574  0.6243578906290264   T   T   T
  0.0874469456765124  0.0753531664776923  0.6317496896829202   T   T   T
  0.0629321305917943  0.3471432782917797  0.6324786656409117   T   T   T
  0.0794288409033635  0.5836490315239202  0.6175562755031898   T   T   T
  0.1155751203866107  0.8000923359053461  0.6125405929802732   T   T   T
  0.3733902336395425  0.0465019470977011  0.6338629987630329   T   T   T
  0.5562367392610632  0.3196703539773186  0.6184051742678789   T   T   T
  0.5966594948080483  0.5820730745464843  0.6145900981676805   T   T   T
  0.4191732570307588  0.1655384045744547  0.4744111193222890   T   T   T
  0.2553432229317614  0.7484973866900724  0.5589654596251683   T   T   T
  0.1679335329601892  0.9239272519647601  0.4748068970337375   T   T   T
  0.6713734836087137  0.6631422164296130  0.4695760548991504   T   T   T
  0.1690806671297158  0.6651333613013822  0.4716969812212400   T   T   T
  0.3333333333333357  0.5833333333333357  0.3817991009012260   F   F   F
  0.6679611976322953  0.9166693835554740  0.4758495827736147   T   T   T
  0.2658109962049153  0.9763537853209646  0.5942266265215608   T   T   T
  0.3333333333333357  0.0833333333333357  0.3817991009012260   F   F   F
  0.9950991295429571  0.7484793251449149  0.5709180504493271   T   T   T
  0.9936786000202287  0.4919245701067366  0.5787615903058431   T   T   T
  0.0833333333333357  0.5833333333333357  0.3817991009012260   F   F   F
  0.9906431522999450  0.2488096772587161  0.5897599045561671   T   T   T
  0.0061060831854629  0.9928257355618481  0.5852823434982891   T   T   T
  0.4166481672915240  0.4163070641006107  0.4743799284421845   T   T   T
  0.3333333333333357  0.8333333333333357  0.3817991009012260   F   F   F
  0.8333333333333357  0.0833333333333357  0.3817991009012260   F   F   F
  0.7536812501046357  0.4871400724567418  0.5656542904709916   T   T   T
  0.5833333333333357  0.5833333333333357  0.3817991009012260   F   F   F
  0.7479425868113732  0.2526402365842216  0.5912021074658451   T   T   T
  0.6703139960429281  0.4152945616128462  0.4739335035857123   T   T   T
  0.5833333333333357  0.8333333333333357  0.3817991009012260   F   F   F
  0.4974114051248331  0.2425813191972028  0.5609161444881053   T   T   T
  0.8333333333333357  0.5833333333333357  0.3817991009012260   F   F   F
 
  0.00000000E+00  0.00000000E+00  0.00000000E+00
  0.00000000E+00  0.00000000E+00  0.00000000E+00
  0.00000000E+00  0.00000000E+00  0.00000000E+00
  0.00000000E+00  0.00000000E+00  0.00000000E+00
  0.00000000E+00  0.00000000E+00  0.00000000E+00
  0.00000000E+00  0.00000000E+00  0.00000000E+00
  0.00000000E+00  0.00000000E+00  0.00000000E+00
  0.00000000E+00  0.00000000E+00  0.00000000E+00
  0.00000000E+00  0.00000000E+00  0.00000000E+00
  0.00000000E+00  0.00000000E+00  0.00000000E+00
  0.00000000E+00  0.00000000E+00  0.00000000E+00
  0.00000000E+00  0.00000000E+00  0.00000000E+00
  0.00000000E+00  0.00000000E+00  0.00000000E+00
  0.00000000E+00  0.00000000E+00  0.00000000E+00
  0.00000000E+00  0.00000000E+00  0.00000000E+00
  0.00000000E+00  0.00000000E+00  0.00000000E+00
  0.00000000E+00  0.00000000E+00  0.00000000E+00
  0.00000000E+00  0.00000000E+00  0.00000000E+00
  0.00000000E+00  0.00000000E+00  0.00000000E+00
  0.00000000E+00  0.00000000E+00  0.00000000E+00
  0.00000000E+00  0.00000000E+00  0.00000000E+00
  0.00000000E+00  0.00000000E+00  0.00000000E+00
  0.00000000E+00  0.00000000E+00  0.00000000E+00
  0.00000000E+00  0.00000000E+00  0.00000000E+00
  0.00000000E+00  0.00000000E+00  0.00000000E+00
  0.00000000E+00  0.00000000E+00  0.00000000E+00
  0.00000000E+00  0.00000000E+00  0.00000000E+00
  0.00000000E+00  0.00000000E+00  0.00000000E+00
  0.00000000E+00  0.00000000E+00  0.00000000E+00
  0.00000000E+00  0.00000000E+00  0.00000000E+00
  0.00000000E+00  0.00000000E+00  0.00000000E+00
  0.00000000E+00  0.00000000E+00  0.00000000E+00
  0.00000000E+00  0.00000000E+00  0.00000000E+00
  0.00000000E+00  0.00000000E+00  0.00000000E+00
  0.00000000E+00  0.00000000E+00  0.00000000E+00
  0.00000000E+00  0.00000000E+00  0.00000000E+00
  0.00000000E+00  0.00000000E+00  0.00000000E+00
  0.00000000E+00  0.00000000E+00  0.00000000E+00
  0.00000000E+00  0.00000000E+00  0.00000000E+00
  0.00000000E+00  0.00000000E+00  0.00000000E+00
  0.00000000E+00  0.00000000E+00  0.00000000E+00
  0.00000000E+00  0.00000000E+00  0.00000000E+00
  0.00000000E+00  0.00000000E+00  0.00000000E+00
  0.00000000E+00  0.00000000E+00  0.00000000E+00
  0.00000000E+00  0.00000000E+00  0.00000000E+00
  0.00000000E+00  0.00000000E+00  0.00000000E+00
  0.00000000E+00  0.00000000E+00  0.00000000E+00
  0.00000000E+00  0.00000000E+00  0.00000000E+00
  0.00000000E+00  0.00000000E+00  0.00000000E+00
  0.00000000E+00  0.00000000E+00  0.00000000E+00
  0.00000000E+00  0.00000000E+00  0.00000000E+00
  0.00000000E+00  0.00000000E+00  0.00000000E+00
  0.00000000E+00  0.00000000E+00  0.00000000E+00
  0.00000000E+00  0.00000000E+00  0.00000000E+00
  0.00000000E+00  0.00000000E+00  0.00000000E+00
  0.00000000E+00  0.00000000E+00  0.00000000E+00
