Au  O Pd                                
   1.00000000000000     
    11.0025815152626798    0.0000000000000000    0.0000000000000000
     5.5012907576313399    9.5285150994265617    0.0000000000000000
     0.0000000000000000    0.0000000000000000   26.1917850942952910
   Au   O    Pd
    24     8    24
Selective dynamics
Direct
  0.0833333333333357  0.0833333333333357  0.3817991009012260   F   F   F
  0.1696216640609418  0.6578096487956823  0.4745521244670675   T   T   T
  0.3333333333333357  0.5833333333333357  0.3817991009012260   F   F   F
  0.9236937844976074  0.1618399403029195  0.4756929514754489   T   T   T
  0.6656398280906197  0.4143872448174481  0.4715261927395565   T   T   T
  0.8333333333333357  0.3333333333333357  0.3817991009012260   F   F   F
  0.0833333333333357  0.3333333333333357  0.3817991009012260   F   F   F
  0.5833333333333357  0.8333333333333357  0.3817991009012260   F   F   F
  0.4857204245526232  0.4959871581741061  0.5634672961906311   T   T   T
  0.9117276370012832  0.6600738828775360  0.4721375230924386   T   T   T
  0.5128241614783814  0.2316731107146223  0.5641123819162324   T   T   T
  0.0833333333333357  0.8333333333333357  0.3817991009012260   F   F   F
  0.7527033204676682  0.5139518073909812  0.5596218661958927   T   T   T
  0.0033825638936114  0.7040731562473600  0.5615048292481530   T   T   T
  0.4131365953602473  0.1640107112862870  0.4750468174735869   T   T   T
  0.3333333333333357  0.0833333333333357  0.3817991009012260   F   F   F
  0.1688814961602235  0.1681315135144988  0.5153627767899213   T   T   T
  0.2454426440677027  0.9759386097905784  0.6076601612040800   T   T   T
  0.2356050999769659  0.7505923550486218  0.5700539253645559   T   T   T
  0.3333333333333357  0.3333333333333357  0.3817991009012260   F   F   F
  0.1682933317864164  0.9185011880092815  0.4839021835377189   T   T   T
  0.3164387350876556  0.2116422251238581  0.6494249725078921   T   T   T
  0.3333333333333357  0.8333333333333357  0.3817991009012260   F   F   F
  0.4556704185172328  0.0164144449488336  0.5687747918779634   T   T   T
  0.1891340098574301  0.1405795287205461  0.6647227966141278   T   T   T
  0.9825292387591943  0.4428927037241843  0.6390438161410082   T   T   T
  0.0213920343294595  0.0580167980139222  0.6306628861478446   T   T   T
  0.4414916266245397  0.2911762964674341  0.6404078103915117   T   T   T
  0.8015718570052096  0.3381721790138132  0.6133623989437222   T   T   T
  0.1424962828103581  0.6750190828236432  0.6246916170958635   T   T   T
  0.7249215245214103  0.8391415316586973  0.6162058800892712   T   T   T
  0.5667943768362670  0.6126551667740373  0.6084455111441919   T   T   T
  0.1681036222620105  0.4100730093687870  0.4769793701076883   T   T   T
  0.8450008144297586  0.6427852178401673  0.6240928473874517   T   T   T
  0.5833333333333357  0.0833333333333357  0.3817991009012260   F   F   F
  0.9162567446077275  0.9108978728057745  0.4759920708157993   T   T   T
  0.8333333333333357  0.8333333333333357  0.3817991009012260   F   F   F
  0.5833333333333357  0.3333333333333357  0.3817991009012260   F   F   F
  0.4185204955287207  0.4100010079004001  0.4748378057329153   T   T   T
  0.0753792212385172  0.4207675292831373  0.5711026929495956   T   T   T
  0.6632628818854701  0.6670504771611144  0.4722518669135561   T   T   T
  0.5833333333333357  0.5833333333333357  0.3817991009012260   F   F   F
  0.2877037829284334  0.4804995865767093  0.6244046704287549   T   T   T
  0.7518766555626104  0.2451320064726477  0.5599178308846358   T   T   T
  0.6640624209886522  0.9127951869697958  0.4721866731051112   T   T   T
  0.9946913524056957  0.2513146083380317  0.6350034635049798   T   T   T
  0.4112270039661713  0.9191958128193681  0.4750562823002983   T   T   T
  0.4787044190234475  0.7657138034421471  0.5590200660918799   T   T   T
  0.9249007370953946  0.4079702617428256  0.4785440013193057   T   T   T
  0.8333333333333357  0.0833333333333357  0.3817991009012260   F   F   F
  0.6707956775564011  0.1561591705303142  0.4757437334131098   T   T   T
  0.7435116873850970  0.9532627477903423  0.5636967403237768   T   T   T
  0.8333333333333357  0.5833333333333357  0.3817991009012260   F   F   F
  0.9699498160107926  0.9953401481341938  0.5679113526447602   T   T   T
  0.0833333333333357  0.5833333333333357  0.3817991009012260   F   F   F
  0.4154093438757836  0.6665686552707215  0.4726237316032978   T   T   T
 
  0.00000000E+00  0.00000000E+00  0.00000000E+00
  0.00000000E+00  0.00000000E+00  0.00000000E+00
  0.00000000E+00  0.00000000E+00  0.00000000E+00
  0.00000000E+00  0.00000000E+00  0.00000000E+00
  0.00000000E+00  0.00000000E+00  0.00000000E+00
  0.00000000E+00  0.00000000E+00  0.00000000E+00
  0.00000000E+00  0.00000000E+00  0.00000000E+00
  0.00000000E+00  0.00000000E+00  0.00000000E+00
  0.00000000E+00  0.00000000E+00  0.00000000E+00
  0.00000000E+00  0.00000000E+00  0.00000000E+00
  0.00000000E+00  0.00000000E+00  0.00000000E+00
  0.00000000E+00  0.00000000E+00  0.00000000E+00
  0.00000000E+00  0.00000000E+00  0.00000000E+00
  0.00000000E+00  0.00000000E+00  0.00000000E+00
  0.00000000E+00  0.00000000E+00  0.00000000E+00
  0.00000000E+00  0.00000000E+00  0.00000000E+00
  0.00000000E+00  0.00000000E+00  0.00000000E+00
  0.00000000E+00  0.00000000E+00  0.00000000E+00
  0.00000000E+00  0.00000000E+00  0.00000000E+00
  0.00000000E+00  0.00000000E+00  0.00000000E+00
  0.00000000E+00  0.00000000E+00  0.00000000E+00
  0.00000000E+00  0.00000000E+00  0.00000000E+00
  0.00000000E+00  0.00000000E+00  0.00000000E+00
  0.00000000E+00  0.00000000E+00  0.00000000E+00
  0.00000000E+00  0.00000000E+00  0.00000000E+00
  0.00000000E+00  0.00000000E+00  0.00000000E+00
  0.00000000E+00  0.00000000E+00  0.00000000E+00
  0.00000000E+00  0.00000000E+00  0.00000000E+00
  0.00000000E+00  0.00000000E+00  0.00000000E+00
  0.00000000E+00  0.00000000E+00  0.00000000E+00
  0.00000000E+00  0.00000000E+00  0.00000000E+00
  0.00000000E+00  0.00000000E+00  0.00000000E+00
  0.00000000E+00  0.00000000E+00  0.00000000E+00
  0.00000000E+00  0.00000000E+00  0.00000000E+00
  0.00000000E+00  0.00000000E+00  0.00000000E+00
  0.00000000E+00  0.00000000E+00  0.00000000E+00
  0.00000000E+00  0.00000000E+00  0.00000000E+00
  0.00000000E+00  0.00000000E+00  0.00000000E+00
  0.00000000E+00  0.00000000E+00  0.00000000E+00
  0.00000000E+00  0.00000000E+00  0.00000000E+00
  0.00000000E+00  0.00000000E+00  0.00000000E+00
  0.00000000E+00  0.00000000E+00  0.00000000E+00
  0.00000000E+00  0.00000000E+00  0.00000000E+00
  0.00000000E+00  0.00000000E+00  0.00000000E+00
  0.00000000E+00  0.00000000E+00  0.00000000E+00
  0.00000000E+00  0.00000000E+00  0.00000000E+00
  0.00000000E+00  0.00000000E+00  0.00000000E+00
  0.00000000E+00  0.00000000E+00  0.00000000E+00
  0.00000000E+00  0.00000000E+00  0.00000000E+00
  0.00000000E+00  0.00000000E+00  0.00000000E+00
  0.00000000E+00  0.00000000E+00  0.00000000E+00
  0.00000000E+00  0.00000000E+00  0.00000000E+00
  0.00000000E+00  0.00000000E+00  0.00000000E+00
  0.00000000E+00  0.00000000E+00  0.00000000E+00
  0.00000000E+00  0.00000000E+00  0.00000000E+00
  0.00000000E+00  0.00000000E+00  0.00000000E+00
