Au  O Pd                                
   1.00000000000000     
    11.0025815152626798    0.0000000000000000    0.0000000000000000
     5.5012907576313399    9.5285150994265617    0.0000000000000000
     0.0000000000000000    0.0000000000000000   26.1917850942952910
   Au   O    Pd
    24     8    24
Selective dynamics
Direct
  0.0833333333333357  0.0833333333333357  0.3817991009012260   F   F   F
  0.1703124684743900  0.6593957387666340  0.4757938465987823   T   T   T
  0.3333333333333357  0.5833333333333357  0.3817991009012260   F   F   F
  0.9240032713547788  0.1593438835520871  0.4770590659677105   T   T   T
  0.6670084663350903  0.4102170297922870  0.4703787128032325   T   T   T
  0.8333333333333357  0.3333333333333357  0.3817991009012260   F   F   F
  0.0833333333333357  0.3333333333333357  0.3817991009012260   F   F   F
  0.5833333333333357  0.8333333333333357  0.3817991009012260   F   F   F
  0.4946077685848865  0.4942150165067301  0.5639413769232053   T   T   T
  0.9151191947408198  0.6582777244656761  0.4732782350406735   T   T   T
  0.5059844565963804  0.2391147278535459  0.5631771222600367   T   T   T
  0.0833333333333357  0.8333333333333357  0.3817991009012260   F   F   F
  0.7591958833927418  0.4941128002299397  0.5557062123181216   T   T   T
  0.0003578249105934  0.7099169609503397  0.5637349047284173   T   T   T
  0.4151323366658219  0.1652636396933989  0.4726978940131530   T   T   T
  0.3333333333333357  0.0833333333333357  0.3817991009012260   F   F   F
  0.1659194469543731  0.1702907238176856  0.5144018931881214   T   T   T
  0.2441613820312477  0.9734206362944047  0.6093675576121732   T   T   T
  0.2520873778463794  0.7478976034420142  0.5679275217229138   T   T   T
  0.3333333333333357  0.3333333333333357  0.3817991009012260   F   F   F
  0.1697942340373221  0.9192625154321623  0.4824342257338050   T   T   T
  0.3113215390254881  0.2260493952999602  0.6488289872437427   T   T   T
  0.3333333333333357  0.8333333333333357  0.3817991009012260   F   F   F
  0.4285118395125532  0.0414701030777145  0.5668161595564961   T   T   T
  0.1924889262067897  0.1441448788322119  0.6637952920605837   T   T   T
 -0.0200685768293273  0.4459010270322693  0.6397170485037309   T   T   T
  0.0270478949070091  0.0540016380077459  0.6309849481235595   T   T   T
  0.4318455071722103  0.3101376461630618  0.6394752600991008   T   T   T
  0.8039086149607573  0.3278023580243191  0.6139047904531847   T   T   T
  0.1392281386003909  0.6977116194063224  0.6241070036771522   T   T   T
  0.6779726962715815  0.8186726664210445  0.6001516252077268   T   T   T
  0.5838728521604517  0.6066698258272728  0.6083552546145511   T   T   T
  0.1701054938686102  0.4111342679009942  0.4788397505205192   T   T   T
  0.8298441005932773  0.6342079500933808  0.6174261940500179   T   T   T
  0.5833333333333357  0.0833333333333357  0.3817991009012260   F   F   F
  0.9161571789184493  0.9098186128480718  0.4768268394239507   T   T   T
  0.8333333333333357  0.8333333333333357  0.3817991009012260   F   F   F
  0.5833333333333357  0.3333333333333357  0.3817991009012260   F   F   F
  0.4180055108355589  0.4135649778866416  0.4747124355234515   T   T   T
  0.0802452918345485  0.4213016576267807  0.5733647463661817   T   T   T
  0.6681377089617827  0.6621308907070408  0.4717339048093998   T   T   T
  0.5833333333333357  0.5833333333333357  0.3817991009012260   F   F   F
  0.2795198788694278  0.5003273117511341  0.6231558763394709   T   T   T
  0.7533985910964047  0.2336821518270735  0.5611739392864509   T   T   T
  0.6663929126265370  0.9101234734950313  0.4700842045066507   T   T   T
 -0.0038317311549895  0.2513362002266836  0.6349981603712838   T   T   T
  0.4153401840930945  0.9186337379357150  0.4755750579965269   T   T   T
  0.5010125956171385  0.7720368717893361  0.5626495964527622   T   T   T
  0.9297628061011576  0.4033079485959832  0.4759721486318835   T   T   T
  0.8333333333333357  0.0833333333333357  0.3817991009012260   F   F   F
  0.6710841601079635  0.1544555933342689  0.4755440333813237   T   T   T
  0.7331982274440568  0.9444084230078874  0.5631923216898167   T   T   T
  0.8333333333333357  0.5833333333333357  0.3817991009012260   F   F   F
  0.9725242191051635 -0.0121800126316361  0.5689261149845424   T   T   T
  0.0833333333333357  0.5833333333333357  0.3817991009012260   F   F   F
  0.4185519709733571  0.6686970017368925  0.4750128838479811   T   T   T
 
  0.00000000E+00  0.00000000E+00  0.00000000E+00
  0.00000000E+00  0.00000000E+00  0.00000000E+00
  0.00000000E+00  0.00000000E+00  0.00000000E+00
  0.00000000E+00  0.00000000E+00  0.00000000E+00
  0.00000000E+00  0.00000000E+00  0.00000000E+00
  0.00000000E+00  0.00000000E+00  0.00000000E+00
  0.00000000E+00  0.00000000E+00  0.00000000E+00
  0.00000000E+00  0.00000000E+00  0.00000000E+00
  0.00000000E+00  0.00000000E+00  0.00000000E+00
  0.00000000E+00  0.00000000E+00  0.00000000E+00
  0.00000000E+00  0.00000000E+00  0.00000000E+00
  0.00000000E+00  0.00000000E+00  0.00000000E+00
  0.00000000E+00  0.00000000E+00  0.00000000E+00
  0.00000000E+00  0.00000000E+00  0.00000000E+00
  0.00000000E+00  0.00000000E+00  0.00000000E+00
  0.00000000E+00  0.00000000E+00  0.00000000E+00
  0.00000000E+00  0.00000000E+00  0.00000000E+00
  0.00000000E+00  0.00000000E+00  0.00000000E+00
  0.00000000E+00  0.00000000E+00  0.00000000E+00
  0.00000000E+00  0.00000000E+00  0.00000000E+00
  0.00000000E+00  0.00000000E+00  0.00000000E+00
  0.00000000E+00  0.00000000E+00  0.00000000E+00
  0.00000000E+00  0.00000000E+00  0.00000000E+00
  0.00000000E+00  0.00000000E+00  0.00000000E+00
  0.00000000E+00  0.00000000E+00  0.00000000E+00
  0.00000000E+00  0.00000000E+00  0.00000000E+00
  0.00000000E+00  0.00000000E+00  0.00000000E+00
  0.00000000E+00  0.00000000E+00  0.00000000E+00
  0.00000000E+00  0.00000000E+00  0.00000000E+00
  0.00000000E+00  0.00000000E+00  0.00000000E+00
  0.00000000E+00  0.00000000E+00  0.00000000E+00
  0.00000000E+00  0.00000000E+00  0.00000000E+00
  0.00000000E+00  0.00000000E+00  0.00000000E+00
  0.00000000E+00  0.00000000E+00  0.00000000E+00
  0.00000000E+00  0.00000000E+00  0.00000000E+00
  0.00000000E+00  0.00000000E+00  0.00000000E+00
  0.00000000E+00  0.00000000E+00  0.00000000E+00
  0.00000000E+00  0.00000000E+00  0.00000000E+00
  0.00000000E+00  0.00000000E+00  0.00000000E+00
  0.00000000E+00  0.00000000E+00  0.00000000E+00
  0.00000000E+00  0.00000000E+00  0.00000000E+00
  0.00000000E+00  0.00000000E+00  0.00000000E+00
  0.00000000E+00  0.00000000E+00  0.00000000E+00
  0.00000000E+00  0.00000000E+00  0.00000000E+00
  0.00000000E+00  0.00000000E+00  0.00000000E+00
  0.00000000E+00  0.00000000E+00  0.00000000E+00
  0.00000000E+00  0.00000000E+00  0.00000000E+00
  0.00000000E+00  0.00000000E+00  0.00000000E+00
  0.00000000E+00  0.00000000E+00  0.00000000E+00
  0.00000000E+00  0.00000000E+00  0.00000000E+00
  0.00000000E+00  0.00000000E+00  0.00000000E+00
  0.00000000E+00  0.00000000E+00  0.00000000E+00
  0.00000000E+00  0.00000000E+00  0.00000000E+00
  0.00000000E+00  0.00000000E+00  0.00000000E+00
  0.00000000E+00  0.00000000E+00  0.00000000E+00
  0.00000000E+00  0.00000000E+00  0.00000000E+00
