Au Pd                                   
   1.00000000000000     
    11.0025815152626798    0.0000000000000000    0.0000000000000000
     5.5012907576313399    9.5285150994265617    0.0000000000000000
     0.0000000000000000    0.0000000000000000   24.4917850942952882
   Au   Pd
    24    24
Direct
  0.0826030879993569  0.0830183978175801  0.3942713179702433
  0.8365712699362827  0.8316437504829187  0.3977203268847818
  0.7478140858378162  0.5016883048025412  0.6033547285735000
  0.7492612962071556  0.2502804515135668  0.6001978138663149
  0.7475562325207259  0.0000524203396737  0.6009158675089289
  0.4183157277726204  0.9128648402220547  0.4972983735742745
  0.4987530097138041  0.5018623608329311  0.6028619209565569
  0.4979716840380068  0.2477248855982420  0.6035470996003273
  0.4179774151516223  0.4162200475221701  0.4993536007247084
  0.4168740680297625  0.1673335333718788  0.4973549739143122
  0.5831855414123359  0.0861370162491630  0.3947245558011203
  0.6691772053922634  0.9142231887200305  0.4978493995473332
  0.1655727311525298  0.9158461440899034  0.4981967843821494
  0.2499302943545513  0.4975182420562498  0.6055291624169352
  0.1650108456670461  0.6661492981135951  0.4996888423283920
  0.2518731639870490  0.7512764289694369  0.6050197792074664
  0.7459696496757660  0.7509510849988427  0.6021853566060159
  0.0012351427860485 -0.0001826922592622  0.6014106727985944
  0.1648153653185720  0.1679396214093222  0.4969232631056055
  0.0011656335873448  0.4981847490227663  0.6014736278918946
  0.0843105499237250  0.3362907278905314  0.3938748323506947
 -0.0007999055245602  0.7500452628739722  0.6020559000953649
  0.0030481281368120  0.2477519073003968  0.6021961438050860
  0.9144429348636465  0.4180934129255094  0.4983820445546864
  0.4982709933195019  0.7517440166922900  0.5963129236167033
  0.8334542090097045  0.0856186343050088  0.4034022408732920
  0.6685217631206588  0.1664986998988944  0.4994339564078072
  0.6662066218424274  0.4172761884192072  0.5002253328628209
  0.8319714442270469  0.5843954807074361  0.4028940217426881
  0.6670341252900019  0.6644675996617733  0.5002643840278737
  0.9137070094654705  0.1672819135142616  0.4991909921281469
  0.8316115658876748  0.3348350547184288  0.4024084049593539
  0.5832878974679430  0.8320109602972855  0.4005225735946344
  0.1652083768399788  0.4176281435070537  0.4990103143652488
  0.3340731606473165  0.3355014535156390  0.4010534734213403
  0.5841777100739040  0.5837613306585774  0.4037818899673596
  0.9159854019024258  0.6665410774105192  0.4999967070780943
  0.5846044575410182  0.3358649269818961  0.4030830242764300
  0.4970703445579948 -0.0001053468616032  0.5953031319617875
  0.0852863668742904  0.8326003999069322  0.4018615701814189
  0.9152623375062050  0.9178122596172148  0.4994448094024750
  0.3347110084804809  0.0824500205801673  0.3982740777603658
  0.3357825384730482  0.8314910663595659  0.4004512071138138
  0.2518175644999829 -0.0004872677685963  0.5953855935082148
  0.3351205194062232  0.5842362600860995  0.4027797861906104
  0.2503332004999914  0.2482278163742128  0.5955652766129111
  0.0852558220048553  0.5831592905222418  0.4030068417560311
  0.4186104031215723  0.6642766360314798  0.4999610777252914
 
  0.00000000E+00  0.00000000E+00  0.00000000E+00
  0.00000000E+00  0.00000000E+00  0.00000000E+00
  0.00000000E+00  0.00000000E+00  0.00000000E+00
  0.00000000E+00  0.00000000E+00  0.00000000E+00
  0.00000000E+00  0.00000000E+00  0.00000000E+00
  0.00000000E+00  0.00000000E+00  0.00000000E+00
  0.00000000E+00  0.00000000E+00  0.00000000E+00
  0.00000000E+00  0.00000000E+00  0.00000000E+00
  0.00000000E+00  0.00000000E+00  0.00000000E+00
  0.00000000E+00  0.00000000E+00  0.00000000E+00
  0.00000000E+00  0.00000000E+00  0.00000000E+00
  0.00000000E+00  0.00000000E+00  0.00000000E+00
  0.00000000E+00  0.00000000E+00  0.00000000E+00
  0.00000000E+00  0.00000000E+00  0.00000000E+00
  0.00000000E+00  0.00000000E+00  0.00000000E+00
  0.00000000E+00  0.00000000E+00  0.00000000E+00
  0.00000000E+00  0.00000000E+00  0.00000000E+00
  0.00000000E+00  0.00000000E+00  0.00000000E+00
  0.00000000E+00  0.00000000E+00  0.00000000E+00
  0.00000000E+00  0.00000000E+00  0.00000000E+00
  0.00000000E+00  0.00000000E+00  0.00000000E+00
  0.00000000E+00  0.00000000E+00  0.00000000E+00
  0.00000000E+00  0.00000000E+00  0.00000000E+00
  0.00000000E+00  0.00000000E+00  0.00000000E+00
  0.00000000E+00  0.00000000E+00  0.00000000E+00
  0.00000000E+00  0.00000000E+00  0.00000000E+00
  0.00000000E+00  0.00000000E+00  0.00000000E+00
  0.00000000E+00  0.00000000E+00  0.00000000E+00
  0.00000000E+00  0.00000000E+00  0.00000000E+00
  0.00000000E+00  0.00000000E+00  0.00000000E+00
  0.00000000E+00  0.00000000E+00  0.00000000E+00
  0.00000000E+00  0.00000000E+00  0.00000000E+00
  0.00000000E+00  0.00000000E+00  0.00000000E+00
  0.00000000E+00  0.00000000E+00  0.00000000E+00
  0.00000000E+00  0.00000000E+00  0.00000000E+00
  0.00000000E+00  0.00000000E+00  0.00000000E+00
  0.00000000E+00  0.00000000E+00  0.00000000E+00
  0.00000000E+00  0.00000000E+00  0.00000000E+00
  0.00000000E+00  0.00000000E+00  0.00000000E+00
  0.00000000E+00  0.00000000E+00  0.00000000E+00
  0.00000000E+00  0.00000000E+00  0.00000000E+00
  0.00000000E+00  0.00000000E+00  0.00000000E+00
  0.00000000E+00  0.00000000E+00  0.00000000E+00
  0.00000000E+00  0.00000000E+00  0.00000000E+00
  0.00000000E+00  0.00000000E+00  0.00000000E+00
  0.00000000E+00  0.00000000E+00  0.00000000E+00
  0.00000000E+00  0.00000000E+00  0.00000000E+00
  0.00000000E+00  0.00000000E+00  0.00000000E+00
