Au Pd                                   
   1.00000000000000     
    11.0025815152626798    0.0000000000000000    0.0000000000000000
     5.5012907576313399    9.5285150994265617    0.0000000000000000
     0.0000000000000000    0.0000000000000000   24.4917850942952882
   Au   Pd
    24    24
Direct
  0.2511205109707395  0.7517733826120476  0.6045955223790914
  0.4196678551057262  0.4155742319162878  0.5001939492871108
  0.5830851178986453  0.3326885826001351  0.3977644813510899
  0.5008918003508276  0.5003827174081301  0.6020828748357050
  0.5831525224363813  0.0820785670757469  0.3992564109919184
  0.5841455185968661  0.8345526302459922  0.3964023907452726
  0.1648127670541801  0.9174490891013658  0.5008253130014385
  0.3294188752561758  0.8366814532413167  0.3961218838406928
  0.4199426794640622  0.9151792385434556  0.4993087590685579
  0.1648023040720251  0.6681089222173056  0.5008905991499075
  0.3297073719813072  0.5850094877100873  0.3955779591995021
  0.1656596403645013  0.4168719040531100  0.5003036503881407
  0.4991478551494878  0.2479040556590178  0.6021040257711319
  0.8367675537779219  0.0794993379067483  0.3994361116307784
  0.3292869877359793  0.3331992576173885  0.3950442090285489
  0.0001209878538577  0.7502373672199562  0.6043539473493159
  0.7496888430490782 -0.0002721411063402  0.6012133632959988
  0.8361254302892466  0.3318341518198270  0.3993400078317361
  0.0017041483861506  0.4993521456796695  0.6031626881389852
  0.0011178476013880  0.2468388593994982  0.6026334370141311
  0.8368867387129986  0.5834315911453232  0.4001481338924482
  0.7494756719820422  0.5016538479252697  0.5997479091044636
  0.1655303817821901  0.1676940465702221  0.5009307437672521
  0.5828334256678901  0.5841336746814069  0.3993019391010945
  0.6679272513509626  0.1653647766022164  0.5001218706127847
  0.5004702627496980  0.7515692823930108  0.5959712415718216
  0.6674653138310281  0.4167972258461423  0.4997415855196380
  0.7507860601279128  0.2486945970107609  0.5956489893260080
  0.6678383074860129  0.6662214353034263  0.4989815413731169
  0.4190653346297428  0.6655966566788942  0.4999721481660406
  0.8355400359895039  0.8324172601417370  0.4050678500040704
  0.0836066183993791  0.0839254923656630  0.4030877730067602
  0.4196489527076770  0.1662526608164478  0.4997005014764461
  0.6677025313821323  0.9172329956540296  0.4998189864264301
  0.2511071019175801  0.4992418694421066  0.5984233772593772
  0.2517550569839138  0.2481223662526925  0.5977163267138833
  0.2519427738940083 -0.0004774875138573  0.5981876343933129
  0.3312614750907801  0.0843722114696012  0.4029362429773044
  0.9135323092216278  0.9181710881353639  0.5012905513544886
  0.0822049788352126  0.8330401341149352  0.4037802821485111
  0.9131821383710672  0.6687085659792712  0.5014952106954093
  0.0818176907019820  0.5847055673661287  0.4034072058015249
  0.9141960793007738  0.4179694939234619  0.5006156955280453
  0.0835145657861744  0.3323033320396942  0.4035754590865084
 -0.0000294117966250  0.0004455023199998  0.5976623748500092
  0.9126280252423935  0.1687792523819789  0.4996695894895560
  0.4994715819183826 -0.0021108401702671  0.5963052420070495
  0.7482721303390113  0.7508001602035939  0.5960820100475905
 
  0.00000000E+00  0.00000000E+00  0.00000000E+00
  0.00000000E+00  0.00000000E+00  0.00000000E+00
  0.00000000E+00  0.00000000E+00  0.00000000E+00
  0.00000000E+00  0.00000000E+00  0.00000000E+00
  0.00000000E+00  0.00000000E+00  0.00000000E+00
  0.00000000E+00  0.00000000E+00  0.00000000E+00
  0.00000000E+00  0.00000000E+00  0.00000000E+00
  0.00000000E+00  0.00000000E+00  0.00000000E+00
  0.00000000E+00  0.00000000E+00  0.00000000E+00
  0.00000000E+00  0.00000000E+00  0.00000000E+00
  0.00000000E+00  0.00000000E+00  0.00000000E+00
  0.00000000E+00  0.00000000E+00  0.00000000E+00
  0.00000000E+00  0.00000000E+00  0.00000000E+00
  0.00000000E+00  0.00000000E+00  0.00000000E+00
  0.00000000E+00  0.00000000E+00  0.00000000E+00
  0.00000000E+00  0.00000000E+00  0.00000000E+00
  0.00000000E+00  0.00000000E+00  0.00000000E+00
  0.00000000E+00  0.00000000E+00  0.00000000E+00
  0.00000000E+00  0.00000000E+00  0.00000000E+00
  0.00000000E+00  0.00000000E+00  0.00000000E+00
  0.00000000E+00  0.00000000E+00  0.00000000E+00
  0.00000000E+00  0.00000000E+00  0.00000000E+00
  0.00000000E+00  0.00000000E+00  0.00000000E+00
  0.00000000E+00  0.00000000E+00  0.00000000E+00
  0.00000000E+00  0.00000000E+00  0.00000000E+00
  0.00000000E+00  0.00000000E+00  0.00000000E+00
  0.00000000E+00  0.00000000E+00  0.00000000E+00
  0.00000000E+00  0.00000000E+00  0.00000000E+00
  0.00000000E+00  0.00000000E+00  0.00000000E+00
  0.00000000E+00  0.00000000E+00  0.00000000E+00
  0.00000000E+00  0.00000000E+00  0.00000000E+00
  0.00000000E+00  0.00000000E+00  0.00000000E+00
  0.00000000E+00  0.00000000E+00  0.00000000E+00
  0.00000000E+00  0.00000000E+00  0.00000000E+00
  0.00000000E+00  0.00000000E+00  0.00000000E+00
  0.00000000E+00  0.00000000E+00  0.00000000E+00
  0.00000000E+00  0.00000000E+00  0.00000000E+00
  0.00000000E+00  0.00000000E+00  0.00000000E+00
  0.00000000E+00  0.00000000E+00  0.00000000E+00
  0.00000000E+00  0.00000000E+00  0.00000000E+00
  0.00000000E+00  0.00000000E+00  0.00000000E+00
  0.00000000E+00  0.00000000E+00  0.00000000E+00
  0.00000000E+00  0.00000000E+00  0.00000000E+00
  0.00000000E+00  0.00000000E+00  0.00000000E+00
  0.00000000E+00  0.00000000E+00  0.00000000E+00
  0.00000000E+00  0.00000000E+00  0.00000000E+00
  0.00000000E+00  0.00000000E+00  0.00000000E+00
  0.00000000E+00  0.00000000E+00  0.00000000E+00
