Au Pd                                   
   1.00000000000000     
    11.0025815152626798    0.0000000000000000    0.0000000000000000
     5.5012907576313399    9.5285150994265617    0.0000000000000000
     0.0000000000000000    0.0000000000000000   24.4917850942952882
   Au   Pd
    24    24
Direct
  0.0792160069784991  0.0872683957360719  0.3964801012505462
  0.8336615308581876  0.8332963497492991  0.3930592180947194
  0.7463483453587028  0.4994124609399364  0.6058296698560641
  0.6651748170595954  0.6648607368604229  0.4995838811787481
  0.7504637211492646  0.0006598774725966  0.6047094468348821
  0.4151809318400881  0.9179826516259612  0.4979898692691393
  0.5002228282246872  0.2527017111204288  0.6031415828620579
  0.4184551368118075  0.4145304382618801  0.4990315214267678
  0.4981651609143961 -0.0011549438228978  0.6043891372010659
  0.6644691231301219  0.9201748265723960  0.4992337249086432
  0.1660494852704816  0.9184240589660738  0.4974004779306178
  0.3356051116456979  0.8316646818312313  0.3924853911812241
  0.1679122971797691  0.6647462040761327  0.4979841359878721
  0.3348884038812507  0.5810256174450770  0.3940591202637971
  0.2502030449179674  0.2498559321682114  0.6004117679033947
  0.2527942684427389  0.7475505011934011  0.6005649225548433
  0.7496056030909040  0.7494607757700217  0.6064731516577520
  0.9170538947881980  0.6653881164081767  0.4993808413228037
  0.9177336087608965  0.4136550840484955  0.5005230075475935
  0.0015647355195858  0.5010230227427674  0.6056772259674411
  0.9147183625268172  0.9197235467199482  0.4989524556727023
 -0.0000278539383734  0.2483956220369887  0.6022764334416285
  0.3344914357326201  0.0860678427420514  0.3966489176904960
  0.0008951462635261 -0.0007491315357452  0.6040104390721890
  0.0829665676765205  0.3363108620699324  0.4031807997669569
  0.7498974042357096  0.2500942627867629  0.5968636236627394
  0.4995990382568772  0.7491753570330040  0.5955951361627322
  0.8310616453342153  0.3349134149716089  0.4038459421937584
  0.9153867344582530  0.1677279817143430  0.4997918783700200
  0.6662563431187157  0.1682350260617950  0.5010640334325493
  0.8318586432596529  0.0847118954214474  0.4029620616177078
  0.8337082247697577  0.5824666159513363  0.4024195647907241
  0.6672792367637982  0.4152163156534923  0.5005716121730538
  0.1668655687641796  0.4147067278292867  0.5004367113582758
  0.5001043194402128  0.5000291876099109  0.5949845733927125
  0.3337957415843856  0.3333924900058794  0.4031725031003336
  0.5859714313887119  0.5814199037372061  0.4018358707322154
  0.0835628187774881  0.5820173746539957  0.4013431881840446
  0.5862254873518067  0.3312797111262910  0.4032313241982143
  0.4147139707233862  0.1682454027275906  0.5002087836460701
  0.5841873645951473  0.0852207709679960  0.4032799221559240
  0.0826472422621118  0.8336196994245595  0.3998251309090656
  0.0002432055953418  0.7499513439734864  0.5969990861241035
  0.2499782457945322  0.5009222081901700  0.5965724103584136
  0.1663290265856037  0.1680431071912203  0.4985178626814808
  0.2501989680052784 -0.0013040131130766  0.5954635208151536
  0.5851046363220389  0.8324705366933862  0.4008129404034094
  0.4172129885288449  0.6651694381894480  0.4967250786933510
 
  0.00000000E+00  0.00000000E+00  0.00000000E+00
  0.00000000E+00  0.00000000E+00  0.00000000E+00
  0.00000000E+00  0.00000000E+00  0.00000000E+00
  0.00000000E+00  0.00000000E+00  0.00000000E+00
  0.00000000E+00  0.00000000E+00  0.00000000E+00
  0.00000000E+00  0.00000000E+00  0.00000000E+00
  0.00000000E+00  0.00000000E+00  0.00000000E+00
  0.00000000E+00  0.00000000E+00  0.00000000E+00
  0.00000000E+00  0.00000000E+00  0.00000000E+00
  0.00000000E+00  0.00000000E+00  0.00000000E+00
  0.00000000E+00  0.00000000E+00  0.00000000E+00
  0.00000000E+00  0.00000000E+00  0.00000000E+00
  0.00000000E+00  0.00000000E+00  0.00000000E+00
  0.00000000E+00  0.00000000E+00  0.00000000E+00
  0.00000000E+00  0.00000000E+00  0.00000000E+00
  0.00000000E+00  0.00000000E+00  0.00000000E+00
  0.00000000E+00  0.00000000E+00  0.00000000E+00
  0.00000000E+00  0.00000000E+00  0.00000000E+00
  0.00000000E+00  0.00000000E+00  0.00000000E+00
  0.00000000E+00  0.00000000E+00  0.00000000E+00
  0.00000000E+00  0.00000000E+00  0.00000000E+00
  0.00000000E+00  0.00000000E+00  0.00000000E+00
  0.00000000E+00  0.00000000E+00  0.00000000E+00
  0.00000000E+00  0.00000000E+00  0.00000000E+00
  0.00000000E+00  0.00000000E+00  0.00000000E+00
  0.00000000E+00  0.00000000E+00  0.00000000E+00
  0.00000000E+00  0.00000000E+00  0.00000000E+00
  0.00000000E+00  0.00000000E+00  0.00000000E+00
  0.00000000E+00  0.00000000E+00  0.00000000E+00
  0.00000000E+00  0.00000000E+00  0.00000000E+00
  0.00000000E+00  0.00000000E+00  0.00000000E+00
  0.00000000E+00  0.00000000E+00  0.00000000E+00
  0.00000000E+00  0.00000000E+00  0.00000000E+00
  0.00000000E+00  0.00000000E+00  0.00000000E+00
  0.00000000E+00  0.00000000E+00  0.00000000E+00
  0.00000000E+00  0.00000000E+00  0.00000000E+00
  0.00000000E+00  0.00000000E+00  0.00000000E+00
  0.00000000E+00  0.00000000E+00  0.00000000E+00
  0.00000000E+00  0.00000000E+00  0.00000000E+00
  0.00000000E+00  0.00000000E+00  0.00000000E+00
  0.00000000E+00  0.00000000E+00  0.00000000E+00
  0.00000000E+00  0.00000000E+00  0.00000000E+00
  0.00000000E+00  0.00000000E+00  0.00000000E+00
  0.00000000E+00  0.00000000E+00  0.00000000E+00
  0.00000000E+00  0.00000000E+00  0.00000000E+00
  0.00000000E+00  0.00000000E+00  0.00000000E+00
  0.00000000E+00  0.00000000E+00  0.00000000E+00
  0.00000000E+00  0.00000000E+00  0.00000000E+00
