Au Pd                                   
   1.00000000000000     
    11.0025815152626798    0.0000000000000000    0.0000000000000000
     5.5012907576313399    9.5285150994265617    0.0000000000000000
     0.0000000000000000    0.0000000000000000   24.4917850942952882
   Au   Pd
    24    24
Selective dynamics
Direct
  0.0833333333333357  0.0833333333333357  0.4083001692812189   F   F   F
  0.9134571019524630  0.4175693585176291  0.5107822395473496   T   T   T
  0.9166595465089102  0.9164446131088125  0.5080880675755497   T   T   T
  0.9136134378840745  0.6686818165902992  0.5079800541088058   T   T   T
  0.9157220543026755  0.1681155868849249  0.5107644786357414   T   T   T
  0.3333333333333357  0.0833333333333357  0.4083001692812189   F   F   F
  0.2527958318197666 -0.0013658836142588  0.6126711256903565   T   T   T
  0.1700044173261649  0.1635704811277099  0.5124837166335436   T   T   T
 -0.0002437416071737  0.2501341223850267  0.6178811039847066   T   T   T
  0.2477038912907990  0.7501292658398924  0.6110419815962206   T   T   T
  0.1701319087195845  0.4152904377495412  0.5081095187996398   T   T   T
  0.3333333333333357  0.5833333333333357  0.4083001692812189   F   F   F
  0.0833333333333357  0.3333333333333357  0.4083001692812189   F   F   F
  0.3333333333333357  0.8333333333333357  0.4083001692812189   F   F   F
  0.5833333333333357  0.3333333333333357  0.4083001692812189   F   F   F
  0.4986041815933416  0.2478985393765799  0.6109182378756287   T   T   T
  0.5833333333333357  0.5833333333333357  0.4083001692812189   F   F   F
  0.4995169379962314  0.4994828822438416  0.6093299533255633   T   T   T
  0.5833333333333357  0.8333333333333357  0.4083001692812189   F   F   F
  0.8333333333333357  0.0833333333333357  0.4083001692812189   F   F   F
  0.6629021315782390  0.1675718627787268  0.5096131142469739   T   T   T
  0.8333333333333357  0.5833333333333357  0.4083001692812189   F   F   F
  0.7490818418792982  0.5029656122286627  0.6123175192616354   T   T   T
  0.1686540052948996  0.6671808651590904  0.5076576294930948   T   T   T
  0.0833333333333357  0.8333333333333357  0.4083001692812189   F   F   F
  0.5020942166016923 -0.0017278458222721  0.6033173050071462   T   T   T
  0.4182327257998556  0.1653730429209797  0.5072667169221713   T   T   T
  0.5833333333333357  0.0833333333333357  0.4083001692812189   F   F   F
  0.2500690029566598  0.2510202717680020  0.6071548001423156   T   T   T
  0.1696481206014430  0.9151924843766007  0.5098549901704953   T   T   T
  0.2479097747931449  0.4999473211515957  0.6058370165755214   T   T   T
 -0.0017097835955788  0.7496635682740841  0.6060736300343303   T   T   T
  0.4173797079681308  0.4164612506158017  0.5085508658873400   T   T   T
  0.6633622835289398  0.9172150189983309  0.5068103779181052   T   T   T
  0.0005635625706418  0.5010597761854294  0.6067238535594081   T   T   T
  0.6640674609944465  0.6675560865093966  0.5093686047825479   T   T   T
  0.6638193844818578  0.4194105134065889  0.5095222956706876   T   T   T
  0.8333333333333357  0.3333333333333357  0.4083001692812189   F   F   F
  0.8333333333333357  0.8333333333333357  0.4083001692812189   F   F   F
 -0.0015430938051860 -0.0000351369807655  0.6069510769082326   T   T   T
  0.7503255756364865  0.2486876091090277  0.6073699710899915   T   T   T
  0.4180345587236725  0.9151665728305590  0.5090691087269693   T   T   T
  0.3333333333333357  0.3333333333333357  0.4083001692812189   F   F   F
  0.7514310502471769 -0.0018259087684888  0.6056579352955552   T   T   T
  0.5005533796734090  0.7509587734620622  0.6051246559583373   T   T   T
  0.0833333333333357  0.5833333333333357  0.4083001692812189   F   F   F
  0.4179223998310327  0.6668665291506332  0.5094449736082073   T   T   T
  0.7486630932718477  0.7530419066035207  0.6048074008192463   T   T   T
 
  0.00000000E+00  0.00000000E+00  0.00000000E+00
  0.00000000E+00  0.00000000E+00  0.00000000E+00
  0.00000000E+00  0.00000000E+00  0.00000000E+00
  0.00000000E+00  0.00000000E+00  0.00000000E+00
  0.00000000E+00  0.00000000E+00  0.00000000E+00
  0.00000000E+00  0.00000000E+00  0.00000000E+00
  0.00000000E+00  0.00000000E+00  0.00000000E+00
  0.00000000E+00  0.00000000E+00  0.00000000E+00
  0.00000000E+00  0.00000000E+00  0.00000000E+00
  0.00000000E+00  0.00000000E+00  0.00000000E+00
  0.00000000E+00  0.00000000E+00  0.00000000E+00
  0.00000000E+00  0.00000000E+00  0.00000000E+00
  0.00000000E+00  0.00000000E+00  0.00000000E+00
  0.00000000E+00  0.00000000E+00  0.00000000E+00
  0.00000000E+00  0.00000000E+00  0.00000000E+00
  0.00000000E+00  0.00000000E+00  0.00000000E+00
  0.00000000E+00  0.00000000E+00  0.00000000E+00
  0.00000000E+00  0.00000000E+00  0.00000000E+00
  0.00000000E+00  0.00000000E+00  0.00000000E+00
  0.00000000E+00  0.00000000E+00  0.00000000E+00
  0.00000000E+00  0.00000000E+00  0.00000000E+00
  0.00000000E+00  0.00000000E+00  0.00000000E+00
  0.00000000E+00  0.00000000E+00  0.00000000E+00
  0.00000000E+00  0.00000000E+00  0.00000000E+00
  0.00000000E+00  0.00000000E+00  0.00000000E+00
  0.00000000E+00  0.00000000E+00  0.00000000E+00
  0.00000000E+00  0.00000000E+00  0.00000000E+00
  0.00000000E+00  0.00000000E+00  0.00000000E+00
  0.00000000E+00  0.00000000E+00  0.00000000E+00
  0.00000000E+00  0.00000000E+00  0.00000000E+00
  0.00000000E+00  0.00000000E+00  0.00000000E+00
  0.00000000E+00  0.00000000E+00  0.00000000E+00
  0.00000000E+00  0.00000000E+00  0.00000000E+00
  0.00000000E+00  0.00000000E+00  0.00000000E+00
  0.00000000E+00  0.00000000E+00  0.00000000E+00
  0.00000000E+00  0.00000000E+00  0.00000000E+00
  0.00000000E+00  0.00000000E+00  0.00000000E+00
  0.00000000E+00  0.00000000E+00  0.00000000E+00
  0.00000000E+00  0.00000000E+00  0.00000000E+00
  0.00000000E+00  0.00000000E+00  0.00000000E+00
  0.00000000E+00  0.00000000E+00  0.00000000E+00
  0.00000000E+00  0.00000000E+00  0.00000000E+00
  0.00000000E+00  0.00000000E+00  0.00000000E+00
  0.00000000E+00  0.00000000E+00  0.00000000E+00
  0.00000000E+00  0.00000000E+00  0.00000000E+00
  0.00000000E+00  0.00000000E+00  0.00000000E+00
  0.00000000E+00  0.00000000E+00  0.00000000E+00
  0.00000000E+00  0.00000000E+00  0.00000000E+00
