Au Pd                                   
   1.00000000000000     
    11.0025815152626798    0.0000000000000000    0.0000000000000000
     5.5012907576313399    9.5285150994265617    0.0000000000000000
     0.0000000000000000    0.0000000000000000   24.4917850942952882
   Au   Pd
    24    24
Direct
  0.3313741389170299  0.3326610062413232  0.3985244649621525
  0.4145945291768476  0.4175161374368574  0.5004837671912856
  0.5837026529953846  0.3306056297875763  0.3951881244552556
  0.4991656687823914 -0.0004458839107072  0.6022387566372982
  0.4973917070632151  0.5015610969302572  0.6051664600080059
  0.3334365748024013  0.8350561835414581  0.3990263315809959
  0.4974090222219587  0.7510653916440673  0.6021724561752483
  0.8325423605533447  0.0819159219044745  0.3976531014957055
  0.3315949119286809  0.5834982404027168  0.3965753173234929
  0.7545881532950172 -0.0023553447110566  0.6021025054417359
  0.4993082177488476  0.2506217864290566  0.6033188732959615
  0.8358720885612193  0.3326176562407617  0.3910756795998926
  0.1683489304525653  0.1659921205638586  0.5005786036087242
  0.5841112156496926  0.5844414592337440  0.3961631765416022
  0.6650256718906589  0.4170479017287528  0.5005544661915091
  0.9167487389362636  0.1644274305357919  0.4997630631799669
  0.0809719133015086  0.8338087526514550  0.3972715589548318
  0.0022046482206130  0.5007414304353299  0.6029364623662685
  0.8354028741095210  0.5853981739902407  0.3959240708004512
  0.6661567392863509  0.6698391926942082  0.5008730649960844
  0.0023475002504111  0.2461005966402781  0.6075485031542918
  0.3341047151637266  0.0832099711365204  0.3991229060486567
  0.7512258882204889  0.4992758504330062  0.6073742238298375
  0.9172622652220245  0.4180188688891792  0.5001369427019411
  0.8314966788085386  0.8341078624337243  0.4058050056027313
  0.4165078512521412  0.9168255185233856  0.5007563884307670
  0.5843778626101060  0.8348829078060839  0.4049084703624400
  0.6666568570589756  0.1648428948256851  0.5013888150445569
  0.7513646000576135  0.2486479084660708  0.5977591862136541
  0.4144245526972848  0.6688273258063090  0.4992961192543053
  0.0826190066827381  0.0846484635860972  0.4023571957403338
  0.2462561567993094  0.7517027383111333  0.5936859829777035
  0.5844457214805554  0.0807192579457768  0.4068741409599613
  0.6670960237484060  0.9182957614237691  0.5029956080406792
  0.1673926783087711  0.9138977834943464  0.4982240987731689
  0.2485909716022368  0.5016152949436138  0.5960974286879384
  0.1647883053622870  0.6687495724105375  0.4978818743776854
  0.2499974948753051  0.2500035992652944  0.5971033053347187
  0.1660989079877611  0.4188894195296369  0.5002631537732231
  0.2491729701906938 -0.0009934374938571  0.5963220458063008
  0.0022816545422221  0.7489229183233342  0.5944877317476364
  0.9165274286858182  0.9153535762273364  0.4996086682443701
  0.9181859576095176  0.6670492271102069  0.5002460407686115
  0.0817232166144130  0.5837067413020381  0.4040207283060098
  0.0828885299111688  0.3337085521913194  0.4028777786891820
  0.0019279737673521 -0.0018528953310477  0.5954231510709889
  0.4179896654505934  0.1655427324741756  0.5018008368550471
  0.7522978071460281  0.7492867055558795  0.5980433643967895
 
  0.00000000E+00  0.00000000E+00  0.00000000E+00
  0.00000000E+00  0.00000000E+00  0.00000000E+00
  0.00000000E+00  0.00000000E+00  0.00000000E+00
  0.00000000E+00  0.00000000E+00  0.00000000E+00
  0.00000000E+00  0.00000000E+00  0.00000000E+00
  0.00000000E+00  0.00000000E+00  0.00000000E+00
  0.00000000E+00  0.00000000E+00  0.00000000E+00
  0.00000000E+00  0.00000000E+00  0.00000000E+00
  0.00000000E+00  0.00000000E+00  0.00000000E+00
  0.00000000E+00  0.00000000E+00  0.00000000E+00
  0.00000000E+00  0.00000000E+00  0.00000000E+00
  0.00000000E+00  0.00000000E+00  0.00000000E+00
  0.00000000E+00  0.00000000E+00  0.00000000E+00
  0.00000000E+00  0.00000000E+00  0.00000000E+00
  0.00000000E+00  0.00000000E+00  0.00000000E+00
  0.00000000E+00  0.00000000E+00  0.00000000E+00
  0.00000000E+00  0.00000000E+00  0.00000000E+00
  0.00000000E+00  0.00000000E+00  0.00000000E+00
  0.00000000E+00  0.00000000E+00  0.00000000E+00
  0.00000000E+00  0.00000000E+00  0.00000000E+00
  0.00000000E+00  0.00000000E+00  0.00000000E+00
  0.00000000E+00  0.00000000E+00  0.00000000E+00
  0.00000000E+00  0.00000000E+00  0.00000000E+00
  0.00000000E+00  0.00000000E+00  0.00000000E+00
  0.00000000E+00  0.00000000E+00  0.00000000E+00
  0.00000000E+00  0.00000000E+00  0.00000000E+00
  0.00000000E+00  0.00000000E+00  0.00000000E+00
  0.00000000E+00  0.00000000E+00  0.00000000E+00
  0.00000000E+00  0.00000000E+00  0.00000000E+00
  0.00000000E+00  0.00000000E+00  0.00000000E+00
  0.00000000E+00  0.00000000E+00  0.00000000E+00
  0.00000000E+00  0.00000000E+00  0.00000000E+00
  0.00000000E+00  0.00000000E+00  0.00000000E+00
  0.00000000E+00  0.00000000E+00  0.00000000E+00
  0.00000000E+00  0.00000000E+00  0.00000000E+00
  0.00000000E+00  0.00000000E+00  0.00000000E+00
  0.00000000E+00  0.00000000E+00  0.00000000E+00
  0.00000000E+00  0.00000000E+00  0.00000000E+00
  0.00000000E+00  0.00000000E+00  0.00000000E+00
  0.00000000E+00  0.00000000E+00  0.00000000E+00
  0.00000000E+00  0.00000000E+00  0.00000000E+00
  0.00000000E+00  0.00000000E+00  0.00000000E+00
  0.00000000E+00  0.00000000E+00  0.00000000E+00
  0.00000000E+00  0.00000000E+00  0.00000000E+00
  0.00000000E+00  0.00000000E+00  0.00000000E+00
  0.00000000E+00  0.00000000E+00  0.00000000E+00
  0.00000000E+00  0.00000000E+00  0.00000000E+00
  0.00000000E+00  0.00000000E+00  0.00000000E+00
