Au Pd                                   
   1.00000000000000     
    11.0025815152626798    0.0000000000000000    0.0000000000000000
     5.5012907576313399    9.5285150994265617    0.0000000000000000
     0.0000000000000000    0.0000000000000000   24.4917850942952882
   Au   Pd
    24    24
Direct
  0.7508615702333019  0.7498513080901049  0.6061803243463206
  0.4994089442298384  0.2507248331193794  0.5990720774077385
  0.5843971715832764  0.3365110412012132  0.3990920826982600
  0.4978447744470758  0.0022309205301760  0.6010164771584222
  0.4980467909771459  0.7497029575284864  0.6020883935129890
  0.5842904804796168  0.0832750371168919  0.3968070282570297
  0.6663718571523510  0.9179062530634442  0.4997791489469057
  0.8364043524610141  0.0818167876740668  0.3973394566623671
  0.3307503173928770  0.8325355332193209  0.3978501579531949
  0.2497241130638710  0.5007029723012839  0.6027688443114658
  0.1677593716211579  0.6672329943912970  0.4995214048453867
  0.1698598813146207  0.4130369692070083  0.4992659121178566
  0.5853895668332316  0.8295389928462031  0.3989828335607025
  0.2458179323406083  0.0021474447442785  0.6002677544003939
  0.3314848940702796  0.3358592336502311  0.3968213970999571
  0.3301244056888132  0.0846364166814106  0.3986175351380582
  0.9179247575739244  0.1642006769539703  0.4998455605900045
  0.7509639570975960  0.4986977292417442  0.6040372206684003
  0.9161916726804840  0.4152556476928064  0.5005010218776814
  0.9162664083617719  0.6672890162100528  0.5002688847001622
  0.0804532758989303  0.5857808101881536  0.3932746216159059
 -0.0006455105129870  0.7529298991851875  0.6045074920595578
  0.7513025736997612  0.2483160859011396  0.6020281869705738
  0.4192829844363850  0.6653590725476279  0.4997792814664619
  0.8329464350093694  0.5821236641573782  0.4034371033639586
  0.6668722808720907  0.4151643221354878  0.5009767703988873
  0.8341777362274088  0.3352444646096542  0.4029554104503609
  0.6660270957742868  0.6664863386061127  0.5017978492974463
  0.6661637321308709  0.1677488160088116  0.4990689209885411
  0.7502339639100785  0.0000475139815392  0.5962543411498252
  0.8339642204165054  0.8325411555459886  0.4023350661698755
  0.4158466370056084  0.9175470392659050  0.4994368746367523
  0.0821037862577298  0.0845893676389781  0.4030553572736519
  0.5849890100286866  0.5825708074318542  0.4040212513758502
  0.4202350852524139  0.4131757945080757  0.4994238870401111
  0.4177764565068851  0.1655401000017663  0.4986941725058093
  0.1682073134762749  0.9169262988007224  0.4996270503610134
  0.3328104923661832  0.5840225579248410  0.4022924794264322
  0.2477183813903699  0.2512907152524083  0.5962459797618174
  0.1708424735102202  0.1622437152156310  0.4995604600572192
  0.9176914875631933  0.9172680620302937  0.4997570817842120
  0.0822370051114543  0.8335793359534148  0.4029916776542227
  0.0006700177459371  0.4993954870351143  0.5982112792012585
  0.0005883975073635  0.2505284977849648  0.5973253273046176
  0.0804663066995016  0.3345790270048254  0.4023982008725309
 -0.0007113967482141  0.0000631022664187  0.5963467891360644
  0.4992977200698540  0.5004828026994835  0.5969563027411698
  0.2485688187909829  0.7513023808548523  0.5971172686825756
 
  0.00000000E+00  0.00000000E+00  0.00000000E+00
  0.00000000E+00  0.00000000E+00  0.00000000E+00
  0.00000000E+00  0.00000000E+00  0.00000000E+00
  0.00000000E+00  0.00000000E+00  0.00000000E+00
  0.00000000E+00  0.00000000E+00  0.00000000E+00
  0.00000000E+00  0.00000000E+00  0.00000000E+00
  0.00000000E+00  0.00000000E+00  0.00000000E+00
  0.00000000E+00  0.00000000E+00  0.00000000E+00
  0.00000000E+00  0.00000000E+00  0.00000000E+00
  0.00000000E+00  0.00000000E+00  0.00000000E+00
  0.00000000E+00  0.00000000E+00  0.00000000E+00
  0.00000000E+00  0.00000000E+00  0.00000000E+00
  0.00000000E+00  0.00000000E+00  0.00000000E+00
  0.00000000E+00  0.00000000E+00  0.00000000E+00
  0.00000000E+00  0.00000000E+00  0.00000000E+00
  0.00000000E+00  0.00000000E+00  0.00000000E+00
  0.00000000E+00  0.00000000E+00  0.00000000E+00
  0.00000000E+00  0.00000000E+00  0.00000000E+00
  0.00000000E+00  0.00000000E+00  0.00000000E+00
  0.00000000E+00  0.00000000E+00  0.00000000E+00
  0.00000000E+00  0.00000000E+00  0.00000000E+00
  0.00000000E+00  0.00000000E+00  0.00000000E+00
  0.00000000E+00  0.00000000E+00  0.00000000E+00
  0.00000000E+00  0.00000000E+00  0.00000000E+00
  0.00000000E+00  0.00000000E+00  0.00000000E+00
  0.00000000E+00  0.00000000E+00  0.00000000E+00
  0.00000000E+00  0.00000000E+00  0.00000000E+00
  0.00000000E+00  0.00000000E+00  0.00000000E+00
  0.00000000E+00  0.00000000E+00  0.00000000E+00
  0.00000000E+00  0.00000000E+00  0.00000000E+00
  0.00000000E+00  0.00000000E+00  0.00000000E+00
  0.00000000E+00  0.00000000E+00  0.00000000E+00
  0.00000000E+00  0.00000000E+00  0.00000000E+00
  0.00000000E+00  0.00000000E+00  0.00000000E+00
  0.00000000E+00  0.00000000E+00  0.00000000E+00
  0.00000000E+00  0.00000000E+00  0.00000000E+00
  0.00000000E+00  0.00000000E+00  0.00000000E+00
  0.00000000E+00  0.00000000E+00  0.00000000E+00
  0.00000000E+00  0.00000000E+00  0.00000000E+00
  0.00000000E+00  0.00000000E+00  0.00000000E+00
  0.00000000E+00  0.00000000E+00  0.00000000E+00
  0.00000000E+00  0.00000000E+00  0.00000000E+00
  0.00000000E+00  0.00000000E+00  0.00000000E+00
  0.00000000E+00  0.00000000E+00  0.00000000E+00
  0.00000000E+00  0.00000000E+00  0.00000000E+00
  0.00000000E+00  0.00000000E+00  0.00000000E+00
  0.00000000E+00  0.00000000E+00  0.00000000E+00
  0.00000000E+00  0.00000000E+00  0.00000000E+00
