Au Pd                                   
   1.00000000000000     
    11.0025815152626798    0.0000000000000000    0.0000000000000000
     5.5012907576313399    9.5285150994265617    0.0000000000000000
     0.0000000000000000    0.0000000000000000   24.4917850942952882
   Au   Pd
    24    24
Selective dynamics
Direct
  0.0833333333333357  0.0833333333333357  0.4083001692812189   F   F   F
  0.7490745243916462  0.7514469554227317  0.6111729717541378   T   T   T
  0.3333333333333357  0.0833333333333357  0.4083001692812189   F   F   F
 -0.0016318479056445  0.7520081380655206  0.6073108589760700   T   T   T
 -0.0017023310707195  0.2489076052402946  0.6107534550254148   T   T   T
  0.3333333333333357  0.3333333333333357  0.4083001692812189   F   F   F
  0.2497578772086315  0.7527929032233769  0.6103678265222560   T   T   T
  0.2503563617902896  0.2491325771386748  0.6108872001909741   T   T   T
  0.4164635381362436  0.9179534373961379  0.5096164005418313   T   T   T
  0.7488320780550215  0.4997459961391564  0.6130660431155273   T   T   T
  0.6696742525684625  0.6657691856374650  0.5082454292182259   T   T   T
  0.8333333333333357  0.5833333333333357  0.4083001692812189   F   F   F
  0.1650171068975725  0.1695292145190869  0.5093108947397151   T   T   T
  0.6684953452791291  0.1644156329707095  0.5095375684294918   T   T   T
  0.8333333333333357  0.0833333333333357  0.4083001692812189   F   F   F
  0.4158225948451809  0.6665702275531763  0.5097446741544869   T   T   T
  0.3333333333333357  0.5833333333333357  0.4083001692812189   F   F   F
  0.5031983304964606  0.2471372178353725  0.6147577187934130   T   T   T
  0.4137779449147855  0.4165171553009754  0.5120452173213165   T   T   T
  0.5833333333333357  0.3333333333333357  0.4083001692812189   F   F   F
  0.6701069178045027  0.9158771620575218  0.5063195450776946   T   T   T
  0.3333333333333357  0.8333333333333357  0.4083001692812189   F   F   F
  0.2479797975798433  0.5010223063627227  0.6118486309846104   T   T   T
  0.6712993503734499  0.4146759511417530  0.5085669352875574   T   T   T
  0.1648357470826697  0.4191469252026378  0.5071109178101185   T   T   T
 -0.0014769890971281  0.4999501562658554  0.6029171764569459   T   T   T
  0.5833333333333357  0.5833333333333357  0.4083001692812189   F   F   F
  0.0833333333333357  0.8333333333333357  0.4083001692812189   F   F   F
  0.5833333333333357  0.0833333333333357  0.4083001692812189   F   F   F
  0.2501372535913755 -0.0004357161938873  0.6060050904714783   T   T   T
  0.5006393757177405 -0.0006236213303498  0.6060570817858258   T   T   T
  0.4163792117206543  0.1676546148173684  0.5097439112324691   T   T   T
  0.5833333333333357  0.8333333333333357  0.4083001692812189   F   F   F
  0.9211007350401136  0.9142433016440681  0.5061423295894926   T   T   T
  0.4997883785365364  0.7505561582744744  0.6072831134763974   T   T   T
  0.8333333333333357  0.3333333333333357  0.4083001692812189   F   F   F
  0.0833333333333357  0.5833333333333357  0.4083001692812189   F   F   F
  0.1644069722250445  0.6675779592583189  0.5072883198427237   T   T   T
  0.7510267428078728  0.0000108524223784  0.6055110271847021   T   T   T
  0.9191709769886501  0.4158056946804162  0.5069424449393768   T   T   T
  0.7499372716574767  0.2489181567689125  0.6062266477838173   T   T   T
  0.0833333333333357  0.3333333333333357  0.4083001692812189   F   F   F
 -0.0021048222473992  0.0017175489723151  0.6032291573099386   T   T   T
  0.9192177516634510  0.1652994400887982  0.5079647547784248   T   T   T
  0.8333333333333357  0.8333333333333357  0.4083001692812189   F   F   F
  0.9208626709467119  0.6651555133689947  0.5061334036747903   T   T   T
  0.1646281320354133  0.9158039704809813  0.5083221581334201   T   T   T
  0.5010084352945277  0.4994855475719236  0.6075876961505237   T   T   T
 
  0.00000000E+00  0.00000000E+00  0.00000000E+00
  0.00000000E+00  0.00000000E+00  0.00000000E+00
  0.00000000E+00  0.00000000E+00  0.00000000E+00
  0.00000000E+00  0.00000000E+00  0.00000000E+00
  0.00000000E+00  0.00000000E+00  0.00000000E+00
  0.00000000E+00  0.00000000E+00  0.00000000E+00
  0.00000000E+00  0.00000000E+00  0.00000000E+00
  0.00000000E+00  0.00000000E+00  0.00000000E+00
  0.00000000E+00  0.00000000E+00  0.00000000E+00
  0.00000000E+00  0.00000000E+00  0.00000000E+00
  0.00000000E+00  0.00000000E+00  0.00000000E+00
  0.00000000E+00  0.00000000E+00  0.00000000E+00
  0.00000000E+00  0.00000000E+00  0.00000000E+00
  0.00000000E+00  0.00000000E+00  0.00000000E+00
  0.00000000E+00  0.00000000E+00  0.00000000E+00
  0.00000000E+00  0.00000000E+00  0.00000000E+00
  0.00000000E+00  0.00000000E+00  0.00000000E+00
  0.00000000E+00  0.00000000E+00  0.00000000E+00
  0.00000000E+00  0.00000000E+00  0.00000000E+00
  0.00000000E+00  0.00000000E+00  0.00000000E+00
  0.00000000E+00  0.00000000E+00  0.00000000E+00
  0.00000000E+00  0.00000000E+00  0.00000000E+00
  0.00000000E+00  0.00000000E+00  0.00000000E+00
  0.00000000E+00  0.00000000E+00  0.00000000E+00
  0.00000000E+00  0.00000000E+00  0.00000000E+00
  0.00000000E+00  0.00000000E+00  0.00000000E+00
  0.00000000E+00  0.00000000E+00  0.00000000E+00
  0.00000000E+00  0.00000000E+00  0.00000000E+00
  0.00000000E+00  0.00000000E+00  0.00000000E+00
  0.00000000E+00  0.00000000E+00  0.00000000E+00
  0.00000000E+00  0.00000000E+00  0.00000000E+00
  0.00000000E+00  0.00000000E+00  0.00000000E+00
  0.00000000E+00  0.00000000E+00  0.00000000E+00
  0.00000000E+00  0.00000000E+00  0.00000000E+00
  0.00000000E+00  0.00000000E+00  0.00000000E+00
  0.00000000E+00  0.00000000E+00  0.00000000E+00
  0.00000000E+00  0.00000000E+00  0.00000000E+00
  0.00000000E+00  0.00000000E+00  0.00000000E+00
  0.00000000E+00  0.00000000E+00  0.00000000E+00
  0.00000000E+00  0.00000000E+00  0.00000000E+00
  0.00000000E+00  0.00000000E+00  0.00000000E+00
  0.00000000E+00  0.00000000E+00  0.00000000E+00
  0.00000000E+00  0.00000000E+00  0.00000000E+00
  0.00000000E+00  0.00000000E+00  0.00000000E+00
  0.00000000E+00  0.00000000E+00  0.00000000E+00
  0.00000000E+00  0.00000000E+00  0.00000000E+00
  0.00000000E+00  0.00000000E+00  0.00000000E+00
  0.00000000E+00  0.00000000E+00  0.00000000E+00
