Au Pd                                   
   1.00000000000000     
    11.0025815152626798    0.0000000000000000    0.0000000000000000
     5.5012907576313399    9.5285150994265617    0.0000000000000000
     0.0000000000000000    0.0000000000000000   24.4917850942952882
   Au   Pd
    24    24
Direct
  0.0848557229093824  0.0844392908592153  0.3920105436090273
  0.7494191006566178  0.4975835065816549  0.6043410184013442
  0.6653732400637777  0.6690256251149456  0.5003072439139158
  0.8351236502444642  0.5846689637398090  0.3932886720210579
  0.6644825566481718  0.4150076162396981  0.4992727990705350
  0.8343109540116799  0.3332058541738080  0.3914017864986032
  0.7487458963005533  0.0035200793929906  0.6054269290793639
  0.8311512650221502  0.0828483828025276  0.3966979634492058
  0.5837265204523865  0.8382819434342182  0.3987306243863165
  0.4160794856573625  0.6654570291960155  0.4988240534741978
  0.5837073605071904  0.5833729824606602  0.3911576399860037
  0.4951280638792949  0.0015446113269751  0.6034870262231831
  0.1685495043112303  0.9148601825756415  0.4988930547318019
  0.3331394320411606  0.8358387485278496  0.3929475730566840
  0.2503508297505981  0.4985660440390000  0.6015237606411824
  0.3343473150989338  0.5812177700631289  0.3975704218058466
  0.7485737396231487  0.7494736315641162  0.6075438271768504
  0.9153571797337511  0.1663026812184467  0.4991211908700036
  0.1698554843139007  0.1662143847013081  0.4987104389838356
  0.9184660114777320  0.4165952281626766  0.4991957154035198
  0.0023808988568030  0.7499973663129182  0.6080172368875391
  0.0849230103640644  0.5832064750942541  0.3998026839923554
  0.9178558651898129  0.6663477314279815  0.5028245407285020
  0.9157765274935628  0.9158703957356531  0.5024518699388998
  0.2475909438232602  0.2498922303573407  0.5970515456791389
  0.8333053427010679  0.8345654054545359  0.4063748245956936
  0.0004279614933196  0.0010983645314520  0.5982021509455243
  0.0852751651578170  0.3340392316715721  0.4017138906270753
  0.7488760142995555  0.2500674849558759  0.5972559263393474
  0.0008718075932258  0.2487584443384335  0.5965161522356397
  0.6646706693096126  0.1657497043861179  0.5015622699977178
  0.4975571984762753  0.7498326100218150  0.5966982437641527
  0.4179424703214660  0.9175544620740229  0.4993837428282034
  0.4988813522428413  0.4993951778787414  0.5969040817458425
  0.1696083715401720  0.4159446771274699  0.5007747876098974
  0.0832496334716843  0.8341394999778862  0.4032723629740864
  0.4986156446251297  0.2510105992962630  0.5977937325043855
  0.4152550713850426  0.4139914158280403  0.5009022409168898
  0.5837659099926766  0.3329522819248498  0.4035049512950367
  0.4186928155561105  0.1646922220814245  0.5031918536905557
  0.5822161803901001  0.0854198978509380  0.4081926862882866
  0.6640916046656763  0.9184084523077950  0.5044184254772713
  0.3342813324607089  0.0864518835332990  0.4033370895421703
  0.2480802929837775 -0.0005283106480783  0.5958662480089607
  0.1685072488512088  0.6630929602156542  0.5013280607582260
  0.3359753462817472  0.3307519389760334  0.4065544774259372
 -0.0001129904938566  0.4985094339185623  0.5988409632148664
  0.2506949982636506  0.7507634071944637  0.5968106772053201
 
  0.00000000E+00  0.00000000E+00  0.00000000E+00
  0.00000000E+00  0.00000000E+00  0.00000000E+00
  0.00000000E+00  0.00000000E+00  0.00000000E+00
  0.00000000E+00  0.00000000E+00  0.00000000E+00
  0.00000000E+00  0.00000000E+00  0.00000000E+00
  0.00000000E+00  0.00000000E+00  0.00000000E+00
  0.00000000E+00  0.00000000E+00  0.00000000E+00
  0.00000000E+00  0.00000000E+00  0.00000000E+00
  0.00000000E+00  0.00000000E+00  0.00000000E+00
  0.00000000E+00  0.00000000E+00  0.00000000E+00
  0.00000000E+00  0.00000000E+00  0.00000000E+00
  0.00000000E+00  0.00000000E+00  0.00000000E+00
  0.00000000E+00  0.00000000E+00  0.00000000E+00
  0.00000000E+00  0.00000000E+00  0.00000000E+00
  0.00000000E+00  0.00000000E+00  0.00000000E+00
  0.00000000E+00  0.00000000E+00  0.00000000E+00
  0.00000000E+00  0.00000000E+00  0.00000000E+00
  0.00000000E+00  0.00000000E+00  0.00000000E+00
  0.00000000E+00  0.00000000E+00  0.00000000E+00
  0.00000000E+00  0.00000000E+00  0.00000000E+00
  0.00000000E+00  0.00000000E+00  0.00000000E+00
  0.00000000E+00  0.00000000E+00  0.00000000E+00
  0.00000000E+00  0.00000000E+00  0.00000000E+00
  0.00000000E+00  0.00000000E+00  0.00000000E+00
  0.00000000E+00  0.00000000E+00  0.00000000E+00
  0.00000000E+00  0.00000000E+00  0.00000000E+00
  0.00000000E+00  0.00000000E+00  0.00000000E+00
  0.00000000E+00  0.00000000E+00  0.00000000E+00
  0.00000000E+00  0.00000000E+00  0.00000000E+00
  0.00000000E+00  0.00000000E+00  0.00000000E+00
  0.00000000E+00  0.00000000E+00  0.00000000E+00
  0.00000000E+00  0.00000000E+00  0.00000000E+00
  0.00000000E+00  0.00000000E+00  0.00000000E+00
  0.00000000E+00  0.00000000E+00  0.00000000E+00
  0.00000000E+00  0.00000000E+00  0.00000000E+00
  0.00000000E+00  0.00000000E+00  0.00000000E+00
  0.00000000E+00  0.00000000E+00  0.00000000E+00
  0.00000000E+00  0.00000000E+00  0.00000000E+00
  0.00000000E+00  0.00000000E+00  0.00000000E+00
  0.00000000E+00  0.00000000E+00  0.00000000E+00
  0.00000000E+00  0.00000000E+00  0.00000000E+00
  0.00000000E+00  0.00000000E+00  0.00000000E+00
  0.00000000E+00  0.00000000E+00  0.00000000E+00
  0.00000000E+00  0.00000000E+00  0.00000000E+00
  0.00000000E+00  0.00000000E+00  0.00000000E+00
  0.00000000E+00  0.00000000E+00  0.00000000E+00
  0.00000000E+00  0.00000000E+00  0.00000000E+00
  0.00000000E+00  0.00000000E+00  0.00000000E+00
