Au Pd                                   
   1.00000000000000     
    11.0025815152626798    0.0000000000000000    0.0000000000000000
     5.5012907576313399    9.5285150994265617    0.0000000000000000
     0.0000000000000000    0.0000000000000000   24.4917850942952882
   Au   Pd
    24    24
Direct
  0.0848454398734354  0.0821702127771034  0.3951548352949394
  0.6644019442569834  0.6674403335207678  0.4995315284562174
  0.7510927163802322  0.2507338183445262  0.6020705419464701
  0.8342249459921165  0.3350085105412919  0.3930396469476689
  0.7505267203678954 -0.0024407104220743  0.6054364076751497
  0.8342965720181006  0.0802632912931242  0.3953699385785865
  0.4997119833246095  0.5036950007782705  0.6036255412275600
  0.5847943815237198  0.5834504602070839  0.3977232997343040
  0.4985298937607646  0.2498309026273277  0.6073314518388840
  0.4159195609741442  0.4181694088312274  0.5036358014418223
  0.5827432976779383  0.3334453660691402  0.4006224749336618
  0.4143397719307381  0.1669642934427474  0.5014167112206366
  0.5852459682708357  0.0809943757875660  0.3968519838676991
  0.6660588315401950  0.9163839024528576  0.5007291529336577
  0.3359628036589986  0.8302175355408652  0.3978628836903126
  0.2474267591023940  0.2493618855313813  0.6030098668348707
  0.2477480839150266  0.7528991320479035  0.6008829822664239
  0.0854679766264595  0.3362063234814586  0.3977702117970700
  0.9162731201878429  0.1665724331898611  0.4986470699065914
 -0.0024756246416266  0.5031127734603481  0.6041817048478186
  0.0851695649821766  0.8275334347356308  0.3974710998770999
  0.9181774491885634  0.9146994058812462  0.5004851706605977
  0.3359293157792923  0.0827770467778548  0.3954288964202413
  0.9174218714022246  0.4169147156023662  0.4994624573947314
 -0.0002118735420982  0.2493504049533891  0.5956949091382610
  0.6661920264863587  0.1669835442830781  0.5018662363032865
  0.3339899687079256  0.3339011102523091  0.4059095796642961
  0.6650111619781918  0.4176578311574171  0.5001774479596164
  0.0004487911334929  0.0006564517467767  0.5960486004815946
  0.8354805991521604  0.5849648231275818  0.4030041480600813
  0.7490563941103080  0.5016365221520482  0.5965430714126940
  0.8348793128242824  0.8296024755623171  0.4039650559765995
  0.4995624944364774  0.7532208535224375  0.5957384355187878
  0.4132100768516883  0.9178394099769946  0.4973561444577650
  0.0837376921327292  0.5824511406757675  0.4068968423676396
  0.1650022469425997  0.4181717549236906  0.5028435841243187
  0.4147637312829918  0.6685531278823779  0.5009879792714369
  0.9188861745191547  0.6651024634642938  0.5023472717866968
  0.4979468554337156 -0.0009251433827003  0.5974589092913157
 -0.0005333706850755  0.7508318694770223  0.5986656919144441
  0.1671182615123476  0.1658359404087431  0.4978448095095651
  0.1691991076733709  0.9147248892451509  0.4982872598116320
  0.2498503317513072  0.0003178257282078  0.5930096442472423
  0.2481780612875435  0.5015051209927899  0.5998536635071305
  0.1664240332386413  0.6670388950518049  0.5020126272115847
  0.3336362994887189  0.5815549692799764  0.4062005081025856
  0.5861486676659164  0.8319564733587015  0.4014126588770447
  0.7481896075241898  0.7506633936599478  0.5981332612113641
 
  0.00000000E+00  0.00000000E+00  0.00000000E+00
  0.00000000E+00  0.00000000E+00  0.00000000E+00
  0.00000000E+00  0.00000000E+00  0.00000000E+00
  0.00000000E+00  0.00000000E+00  0.00000000E+00
  0.00000000E+00  0.00000000E+00  0.00000000E+00
  0.00000000E+00  0.00000000E+00  0.00000000E+00
  0.00000000E+00  0.00000000E+00  0.00000000E+00
  0.00000000E+00  0.00000000E+00  0.00000000E+00
  0.00000000E+00  0.00000000E+00  0.00000000E+00
  0.00000000E+00  0.00000000E+00  0.00000000E+00
  0.00000000E+00  0.00000000E+00  0.00000000E+00
  0.00000000E+00  0.00000000E+00  0.00000000E+00
  0.00000000E+00  0.00000000E+00  0.00000000E+00
  0.00000000E+00  0.00000000E+00  0.00000000E+00
  0.00000000E+00  0.00000000E+00  0.00000000E+00
  0.00000000E+00  0.00000000E+00  0.00000000E+00
  0.00000000E+00  0.00000000E+00  0.00000000E+00
  0.00000000E+00  0.00000000E+00  0.00000000E+00
  0.00000000E+00  0.00000000E+00  0.00000000E+00
  0.00000000E+00  0.00000000E+00  0.00000000E+00
  0.00000000E+00  0.00000000E+00  0.00000000E+00
  0.00000000E+00  0.00000000E+00  0.00000000E+00
  0.00000000E+00  0.00000000E+00  0.00000000E+00
  0.00000000E+00  0.00000000E+00  0.00000000E+00
  0.00000000E+00  0.00000000E+00  0.00000000E+00
  0.00000000E+00  0.00000000E+00  0.00000000E+00
  0.00000000E+00  0.00000000E+00  0.00000000E+00
  0.00000000E+00  0.00000000E+00  0.00000000E+00
  0.00000000E+00  0.00000000E+00  0.00000000E+00
  0.00000000E+00  0.00000000E+00  0.00000000E+00
  0.00000000E+00  0.00000000E+00  0.00000000E+00
  0.00000000E+00  0.00000000E+00  0.00000000E+00
  0.00000000E+00  0.00000000E+00  0.00000000E+00
  0.00000000E+00  0.00000000E+00  0.00000000E+00
  0.00000000E+00  0.00000000E+00  0.00000000E+00
  0.00000000E+00  0.00000000E+00  0.00000000E+00
  0.00000000E+00  0.00000000E+00  0.00000000E+00
  0.00000000E+00  0.00000000E+00  0.00000000E+00
  0.00000000E+00  0.00000000E+00  0.00000000E+00
  0.00000000E+00  0.00000000E+00  0.00000000E+00
  0.00000000E+00  0.00000000E+00  0.00000000E+00
  0.00000000E+00  0.00000000E+00  0.00000000E+00
  0.00000000E+00  0.00000000E+00  0.00000000E+00
  0.00000000E+00  0.00000000E+00  0.00000000E+00
  0.00000000E+00  0.00000000E+00  0.00000000E+00
  0.00000000E+00  0.00000000E+00  0.00000000E+00
  0.00000000E+00  0.00000000E+00  0.00000000E+00
  0.00000000E+00  0.00000000E+00  0.00000000E+00
