Au  O Pd                                
   1.00000000000000     
    11.0025815152626798    0.0000000000000000    0.0000000000000000
     5.5012907576313399    9.5285150994265617    0.0000000000000000
     0.0000000000000000    0.0000000000000000   26.1917850942952910
   Au   O    Pd
    24     8    24
Selective dynamics
Direct
  0.0833333333333357  0.0833333333333357  0.3817991009012260   F   F   F
  0.4173512096800389  0.6650680311784494  0.4776098863662930   T   T   T
  0.6699822353928814  0.9124828681250037  0.4728948323107672   T   T   T
  0.7485310578970463  0.4991946364761747  0.5688409416391319   T   T   T
  0.6696751039583676  0.6629803346021238  0.4766772219930793   T   T   T
  0.8333333333333357  0.5833333333333357  0.3817991009012260   F   F   F
  0.0299945379791890  0.1856823367826707  0.5887298282146071   T   T   T
  0.6704605994050321  0.4133640773349438  0.4756968161147926   T   T   T
  0.6705455688660585  0.1629101174842240  0.4750134593595938   T   T   T
  0.8333333333333357  0.0833333333333357  0.3817991009012260   F   F   F
  0.4179951696154202  0.9141564887377935  0.4734844175431110   T   T   T
  0.3333333333333357  0.8333333333333357  0.3817991009012260   F   F   F
  0.2624092918971672  0.4876850303658780  0.5682706665373666   T   T   T
  0.5030529510190599  0.2289217425471233  0.5673691180982264   T   T   T
  0.3333333333333357  0.0833333333333357  0.3817991009012260   F   F   F
  0.1614224064988173  0.1683807463939867  0.4742143547566363   T   T   T
  0.4141972183665802  0.4180360274444594  0.4795975894563154   T   T   T
  0.5833333333333357  0.3333333333333357  0.3817991009012260   F   F   F
  0.3333333333333357  0.3333333333333357  0.3817991009012260   F   F   F
  0.7536357483143518  0.7393481506067322  0.5709486317904794   T   T   T
  0.2586796085388108  0.2349007767489841  0.5621144797000762   T   T   T
  0.2553448803135408  0.7357005830241152  0.5666040804509843   T   T   T
  0.3333333333333357  0.5833333333333357  0.3817991009012260   F   F   F
 -0.0135651812582506  0.7643180603754909  0.6197380890298027   T   T   T
 -0.1166385835866205  0.9733171029786120  0.6193432075186236   T   T   T
  0.0930965766098815  0.5591920331995478  0.6220603750354101   T   T   T
  0.3499350790474741  0.7112234682327032  0.6402823910008923   T   T   T
  0.0881073081250318  0.3256808995261070  0.6141102335584316   T   T   T
  0.3890487907704798  0.9634670851303393  0.6202092086982406   T   T   T
  0.5865570198797975  0.3081616348841620  0.6202540334200510   T   T   T
  0.8366220331372995  0.3092494417029539  0.6163590393420909   T   T   T
  0.6183495388154846  0.5632792784916217  0.6357565242893626   T   T   T
  0.9204871609440136  0.9101302962589050  0.4697529960733265   T   T   T
  0.2640459102910931 -0.0258443416866400  0.5616536124123213   T   T   T
  0.5095824798750781 -0.0204415423893743  0.5659539991577507   T   T   T
  0.5833333333333357  0.8333333333333357  0.3817991009012260   F   F   F
  0.4179450255878618  0.1650067875328922  0.4752353872048496   T   T   T
  0.5833333333333357  0.0833333333333357  0.3817991009012260   F   F   F
  0.1635248326447976  0.4193090585259951  0.4718125101751585   T   T   T
  0.1634762092039752  0.9150661224280944  0.4752294947879520   T   T   T
  0.4677724400786793  0.5081897800958972  0.6257136957143936   T   T   T
  0.0004039013717451  0.4959988352332134  0.5665181498770475   T   T   T
  0.5031281426865498  0.7641706964800852  0.6255343066920600   T   T   T
  0.9219782314430386  0.6632258911029670  0.4790984243654973   T   T   T
  0.0833333333333357  0.5833333333333357  0.3817991009012260   F   F   F
  0.7560335604919158 -0.0191331957866422  0.5613174366151165   T   T   T
  0.8333333333333357  0.3333333333333357  0.3817991009012260   F   F   F
  0.7461211656710229  0.2400747486276591  0.5686703405747552   T   T   T
  0.9178340384255020  0.4159101857415313  0.4800777350446405   T   T   T
  0.0833333333333357  0.3333333333333357  0.3817991009012260   F   F   F
  0.0050405790051627 -0.0257021396181285  0.5607240964597410   T   T   T
  0.8333333333333357  0.8333333333333357  0.3817991009012260   F   F   F
  0.9175841040006532  0.1647310419192201  0.4787129881922869   T   T   T
  0.1641519003037165  0.6679740590905251  0.4763872990330305   T   T   T
  0.5833333333333357  0.5833333333333357  0.3817991009012260   F   F   F
  0.0833333333333357  0.8333333333333357  0.3817991009012260   F   F   F
 
  0.00000000E+00  0.00000000E+00  0.00000000E+00
  0.00000000E+00  0.00000000E+00  0.00000000E+00
  0.00000000E+00  0.00000000E+00  0.00000000E+00
  0.00000000E+00  0.00000000E+00  0.00000000E+00
  0.00000000E+00  0.00000000E+00  0.00000000E+00
  0.00000000E+00  0.00000000E+00  0.00000000E+00
  0.00000000E+00  0.00000000E+00  0.00000000E+00
  0.00000000E+00  0.00000000E+00  0.00000000E+00
  0.00000000E+00  0.00000000E+00  0.00000000E+00
  0.00000000E+00  0.00000000E+00  0.00000000E+00
  0.00000000E+00  0.00000000E+00  0.00000000E+00
  0.00000000E+00  0.00000000E+00  0.00000000E+00
  0.00000000E+00  0.00000000E+00  0.00000000E+00
  0.00000000E+00  0.00000000E+00  0.00000000E+00
  0.00000000E+00  0.00000000E+00  0.00000000E+00
  0.00000000E+00  0.00000000E+00  0.00000000E+00
  0.00000000E+00  0.00000000E+00  0.00000000E+00
  0.00000000E+00  0.00000000E+00  0.00000000E+00
  0.00000000E+00  0.00000000E+00  0.00000000E+00
  0.00000000E+00  0.00000000E+00  0.00000000E+00
  0.00000000E+00  0.00000000E+00  0.00000000E+00
  0.00000000E+00  0.00000000E+00  0.00000000E+00
  0.00000000E+00  0.00000000E+00  0.00000000E+00
  0.00000000E+00  0.00000000E+00  0.00000000E+00
  0.00000000E+00  0.00000000E+00  0.00000000E+00
  0.00000000E+00  0.00000000E+00  0.00000000E+00
  0.00000000E+00  0.00000000E+00  0.00000000E+00
  0.00000000E+00  0.00000000E+00  0.00000000E+00
  0.00000000E+00  0.00000000E+00  0.00000000E+00
  0.00000000E+00  0.00000000E+00  0.00000000E+00
  0.00000000E+00  0.00000000E+00  0.00000000E+00
  0.00000000E+00  0.00000000E+00  0.00000000E+00
  0.00000000E+00  0.00000000E+00  0.00000000E+00
  0.00000000E+00  0.00000000E+00  0.00000000E+00
  0.00000000E+00  0.00000000E+00  0.00000000E+00
  0.00000000E+00  0.00000000E+00  0.00000000E+00
  0.00000000E+00  0.00000000E+00  0.00000000E+00
  0.00000000E+00  0.00000000E+00  0.00000000E+00
  0.00000000E+00  0.00000000E+00  0.00000000E+00
  0.00000000E+00  0.00000000E+00  0.00000000E+00
  0.00000000E+00  0.00000000E+00  0.00000000E+00
  0.00000000E+00  0.00000000E+00  0.00000000E+00
  0.00000000E+00  0.00000000E+00  0.00000000E+00
  0.00000000E+00  0.00000000E+00  0.00000000E+00
  0.00000000E+00  0.00000000E+00  0.00000000E+00
  0.00000000E+00  0.00000000E+00  0.00000000E+00
  0.00000000E+00  0.00000000E+00  0.00000000E+00
  0.00000000E+00  0.00000000E+00  0.00000000E+00
  0.00000000E+00  0.00000000E+00  0.00000000E+00
  0.00000000E+00  0.00000000E+00  0.00000000E+00
  0.00000000E+00  0.00000000E+00  0.00000000E+00
  0.00000000E+00  0.00000000E+00  0.00000000E+00
  0.00000000E+00  0.00000000E+00  0.00000000E+00
  0.00000000E+00  0.00000000E+00  0.00000000E+00
  0.00000000E+00  0.00000000E+00  0.00000000E+00
  0.00000000E+00  0.00000000E+00  0.00000000E+00
