Au Pd                                   
   1.00000000000000     
    11.0025815152626798    0.0000000000000000    0.0000000000000000
     5.5012907576313399    9.5285150994265617    0.0000000000000000
     0.0000000000000000    0.0000000000000000   24.4917850942952882
   Au   Pd
    24    24
Selective dynamics
Direct
  0.0833333333333357  0.0833333333333357  0.4083001692812189   F   F   F
  0.0833333333333357  0.8333333333333357  0.4083001692812189   F   F   F
 -0.0021039679773719  0.7499889272899288  0.6065485097664218   T   T   T
  0.0833333333333357  0.3333333333333357  0.4083001692812189   F   F   F
  0.3333333333333357  0.0833333333333357  0.4083001692812189   F   F   F
  0.9166290228340155  0.1667863672885882  0.5082505066656519   T   T   T
  0.3333333333333357  0.3333333333333357  0.4083001692812189   F   F   F
  0.2499347344464820  0.7480409079999740  0.6118091307027990   T   T   T
  0.2497245847603302  0.2524036354517740  0.6108427566515495   T   T   T
  0.3333333333333357  0.5833333333333357  0.4083001692812189   F   F   F
  0.3333333333333357  0.8333333333333357  0.4083001692812189   F   F   F
  0.1664136040861219  0.9147695278398377  0.5117601401515635   T   T   T
  0.0006918658478736  0.2492991769111806  0.6107122602274949   T   T   T
  0.5041025983893919 -0.0005338626667504  0.6150363919916586   T   T   T
  0.5833333333333357  0.3333333333333357  0.4083001692812189   F   F   F
  0.5833333333333357  0.5833333333333357  0.4083001692812189   F   F   F
  0.5833333333333357  0.8333333333333357  0.4083001692812189   F   F   F
  0.4192203804070733  0.9145863702514033  0.5125052292827799   T   T   T
  0.5012135624571570  0.7479250452624424  0.6124353654428920   T   T   T
  0.6677330214378588  0.1640066955295424  0.5077395719179156   T   T   T
  0.6662337788099609  0.4190740408652294  0.5100102377035223   T   T   T
  0.7484804952347673  0.2477041603049011  0.6152969911853805   T   T   T
  0.7516489763625730  0.5005926070979344  0.6110111778168356   T   T   T
  0.4169661634862875  0.1669808391677867  0.5100284931574749   T   T   T
  0.4999116557107242  0.2512292324308951  0.6062211007897124   T   T   T
  0.4142515697730709  0.4189409849638152  0.5086447344501610   T   T   T
  0.9170672141506319  0.9126616415085878  0.5068870835981507   T   T   T
  0.5833333333333357  0.0833333333333357  0.4083001692812189   F   F   F
  0.2501619047346967  0.0001407511738825  0.6083115902681072   T   T   T
  0.1654172133271069  0.1691863627936593  0.5107211785784275   T   T   T
  0.2515849181711513  0.4986571930175815  0.6033575114450527   T   T   T
  0.1664164727998698  0.6635640320461347  0.5076086219105289   T   T   T
  0.0000235527526846  0.5010804975670103  0.6010608280072782   T   T   T
  0.6694036690357058  0.9134695628175837  0.5065465402385189   T   T   T
  0.4167268953093596  0.6655114497567113  0.5108750464606959   T   T   T
  0.9177241084619105  0.4184443446221074  0.5065271910551438   T   T   T
  0.4991652711754915  0.4980876086343698  0.6065669416832018   T   T   T
  0.0833333333333357  0.5833333333333357  0.4083001692812189   F   F   F
  0.8333333333333357  0.0833333333333357  0.4083001692812189   F   F   F
  0.7497101861223667 -0.0003578794809545  0.6038972446445020   T   T   T
  0.8333333333333357  0.3333333333333357  0.4083001692812189   F   F   F
 -0.0014062183154681  0.0001201163413762  0.6067776354503983   T   T   T
  0.8333333333333357  0.5833333333333357  0.4083001692812189   F   F   F
  0.6711511415688428  0.6654287727223184  0.5077159894776193   T   T   T
  0.8333333333333357  0.8333333333333357  0.4083001692812189   F   F   F
  0.9171825636010958  0.6668671824075755  0.5046249312612474   T   T   T
  0.1651575630892849  0.4182487145550012  0.5069118665950209   T   T   T
  0.7504923360335478  0.7503667778026054  0.6020348134429797   T   T   T
 
  0.00000000E+00  0.00000000E+00  0.00000000E+00
  0.00000000E+00  0.00000000E+00  0.00000000E+00
  0.00000000E+00  0.00000000E+00  0.00000000E+00
  0.00000000E+00  0.00000000E+00  0.00000000E+00
  0.00000000E+00  0.00000000E+00  0.00000000E+00
  0.00000000E+00  0.00000000E+00  0.00000000E+00
  0.00000000E+00  0.00000000E+00  0.00000000E+00
  0.00000000E+00  0.00000000E+00  0.00000000E+00
  0.00000000E+00  0.00000000E+00  0.00000000E+00
  0.00000000E+00  0.00000000E+00  0.00000000E+00
  0.00000000E+00  0.00000000E+00  0.00000000E+00
  0.00000000E+00  0.00000000E+00  0.00000000E+00
  0.00000000E+00  0.00000000E+00  0.00000000E+00
  0.00000000E+00  0.00000000E+00  0.00000000E+00
  0.00000000E+00  0.00000000E+00  0.00000000E+00
  0.00000000E+00  0.00000000E+00  0.00000000E+00
  0.00000000E+00  0.00000000E+00  0.00000000E+00
  0.00000000E+00  0.00000000E+00  0.00000000E+00
  0.00000000E+00  0.00000000E+00  0.00000000E+00
  0.00000000E+00  0.00000000E+00  0.00000000E+00
  0.00000000E+00  0.00000000E+00  0.00000000E+00
  0.00000000E+00  0.00000000E+00  0.00000000E+00
  0.00000000E+00  0.00000000E+00  0.00000000E+00
  0.00000000E+00  0.00000000E+00  0.00000000E+00
  0.00000000E+00  0.00000000E+00  0.00000000E+00
  0.00000000E+00  0.00000000E+00  0.00000000E+00
  0.00000000E+00  0.00000000E+00  0.00000000E+00
  0.00000000E+00  0.00000000E+00  0.00000000E+00
  0.00000000E+00  0.00000000E+00  0.00000000E+00
  0.00000000E+00  0.00000000E+00  0.00000000E+00
  0.00000000E+00  0.00000000E+00  0.00000000E+00
  0.00000000E+00  0.00000000E+00  0.00000000E+00
  0.00000000E+00  0.00000000E+00  0.00000000E+00
  0.00000000E+00  0.00000000E+00  0.00000000E+00
  0.00000000E+00  0.00000000E+00  0.00000000E+00
  0.00000000E+00  0.00000000E+00  0.00000000E+00
  0.00000000E+00  0.00000000E+00  0.00000000E+00
  0.00000000E+00  0.00000000E+00  0.00000000E+00
  0.00000000E+00  0.00000000E+00  0.00000000E+00
  0.00000000E+00  0.00000000E+00  0.00000000E+00
  0.00000000E+00  0.00000000E+00  0.00000000E+00
  0.00000000E+00  0.00000000E+00  0.00000000E+00
  0.00000000E+00  0.00000000E+00  0.00000000E+00
  0.00000000E+00  0.00000000E+00  0.00000000E+00
  0.00000000E+00  0.00000000E+00  0.00000000E+00
  0.00000000E+00  0.00000000E+00  0.00000000E+00
  0.00000000E+00  0.00000000E+00  0.00000000E+00
  0.00000000E+00  0.00000000E+00  0.00000000E+00
