Au Pd                                   
   1.00000000000000     
    11.0025815152626798    0.0000000000000000    0.0000000000000000
     5.5012907576313399    9.5285150994265617    0.0000000000000000
     0.0000000000000000    0.0000000000000000   24.4917850942952882
   Au   Pd
    24    24
Selective dynamics
Direct
  0.0833333333333357  0.0833333333333357  0.4083001692812189   F   F   F
  0.0833333333333357  0.8333333333333357  0.4083001692812189   F   F   F
  0.5833333333333357  0.8333333333333357  0.4083001692812189   F   F   F
  0.6661428857817346  0.6671314618519949  0.5100729612484570   T   T   T
  0.0833333333333357  0.5833333333333357  0.4083001692812189   F   F   F
  0.6638411096655181  0.4160551706361634  0.5101656574099693   T   T   T
  0.9172084900239157  0.4163702356196530  0.5065891993757531   T   T   T
  0.0004532795380980  0.0008407166176511  0.6135825794806309   T   T   T
  0.9163871951294182  0.1655968482959599  0.5085184689808782   T   T   T
  0.3333333333333357  0.0833333333333357  0.4083001692812189   F   F   F
  0.1661534051355334  0.4155302419999838  0.5104193509614260   T   T   T
  0.2515114125768924  0.0010841792434493  0.6099596597456790   T   T   T
  0.9159872731371360  0.9166218561415164  0.5087635661526023   T   T   T
  0.3333333333333357  0.5833333333333357  0.4083001692812189   F   F   F
  0.1684140390956645  0.6668220666317000  0.5123154538540493   T   T   T
  0.2508328208035320  0.4997766490158908  0.6140663678579660   T   T   T
  0.3333333333333357  0.8333333333333357  0.4083001692812189   F   F   F
  0.7483834619881098  0.0012591004869513  0.6144974261431574   T   T   T
  0.6672571755760176  0.9157643904098661  0.5109093126889689   T   T   T
  0.5833333333333357  0.0833333333333357  0.4083001692812189   F   F   F
  0.4164141968567583  0.1659508131829049  0.5122430459326172   T   T   T
  0.5833333333333357  0.3333333333333357  0.4083001692812189   F   F   F
  0.5833333333333357  0.5833333333333357  0.4083001692812189   F   F   F
  0.3333333333333357  0.3333333333333357  0.4083001692812189   F   F   F
  0.5008781404322167 -0.0009308046427388  0.6083515212266274   T   T   T
  0.1682423099330481  0.9165216242692485  0.5108979331844785   T   T   T
  0.2491915882106140  0.2509359286486177  0.6082465667988798   T   T   T
  0.1674637678324282  0.1643019672208203  0.5088964963338952   T   T   T
  0.0833333333333357  0.3333333333333357  0.4083001692812189   F   F   F
 -0.0023990252748183  0.5016889337351899  0.6063133438228202   T   T   T
  0.9168777530325195  0.6665775294647701  0.5077838415167327   T   T   T
 -0.0013087196771542  0.2535191311151135  0.6057921616957879   T   T   T
  0.4164694828933713  0.4166959303936068  0.5112250460915385   T   T   T
 -0.0014529074562087  0.7495549058248188  0.6074231900328199   T   T   T
  0.5010698718095967  0.2506917305352909  0.6077611176853552   T   T   T
  0.7488425878124110  0.2522786395566698  0.6074734701314471   T   T   T
  0.2522658153526970  0.7495446442809509  0.6078301680314108   T   T   T
  0.7507968866457595  0.4997193438154494  0.6070686117394420   T   T   T
  0.8333333333333357  0.5833333333333357  0.4083001692812189   F   F   F
  0.5018245166656363  0.7483654858821628  0.6068556071352942   T   T   T
  0.8333333333333357  0.0833333333333357  0.4083001692812189   F   F   F
  0.4141922336231821  0.9160259995380458  0.5106518017774826   T   T   T
  0.6656635114121292  0.1665831959198157  0.5099321902694799   T   T   T
  0.8333333333333357  0.8333333333333357  0.4083001692812189   F   F   F
  0.8333333333333357  0.3333333333333357  0.4083001692812189   F   F   F
  0.5009261478692513  0.5007057494238384  0.6072150218088603   T   T   T
  0.4153698078405667  0.6676814622329542  0.5101504402671168   T   T   T
  0.7509700323649580  0.7482572151361664  0.6076781560483134   T   T   T
 
  0.00000000E+00  0.00000000E+00  0.00000000E+00
  0.00000000E+00  0.00000000E+00  0.00000000E+00
  0.00000000E+00  0.00000000E+00  0.00000000E+00
  0.00000000E+00  0.00000000E+00  0.00000000E+00
  0.00000000E+00  0.00000000E+00  0.00000000E+00
  0.00000000E+00  0.00000000E+00  0.00000000E+00
  0.00000000E+00  0.00000000E+00  0.00000000E+00
  0.00000000E+00  0.00000000E+00  0.00000000E+00
  0.00000000E+00  0.00000000E+00  0.00000000E+00
  0.00000000E+00  0.00000000E+00  0.00000000E+00
  0.00000000E+00  0.00000000E+00  0.00000000E+00
  0.00000000E+00  0.00000000E+00  0.00000000E+00
  0.00000000E+00  0.00000000E+00  0.00000000E+00
  0.00000000E+00  0.00000000E+00  0.00000000E+00
  0.00000000E+00  0.00000000E+00  0.00000000E+00
  0.00000000E+00  0.00000000E+00  0.00000000E+00
  0.00000000E+00  0.00000000E+00  0.00000000E+00
  0.00000000E+00  0.00000000E+00  0.00000000E+00
  0.00000000E+00  0.00000000E+00  0.00000000E+00
  0.00000000E+00  0.00000000E+00  0.00000000E+00
  0.00000000E+00  0.00000000E+00  0.00000000E+00
  0.00000000E+00  0.00000000E+00  0.00000000E+00
  0.00000000E+00  0.00000000E+00  0.00000000E+00
  0.00000000E+00  0.00000000E+00  0.00000000E+00
  0.00000000E+00  0.00000000E+00  0.00000000E+00
  0.00000000E+00  0.00000000E+00  0.00000000E+00
  0.00000000E+00  0.00000000E+00  0.00000000E+00
  0.00000000E+00  0.00000000E+00  0.00000000E+00
  0.00000000E+00  0.00000000E+00  0.00000000E+00
  0.00000000E+00  0.00000000E+00  0.00000000E+00
  0.00000000E+00  0.00000000E+00  0.00000000E+00
  0.00000000E+00  0.00000000E+00  0.00000000E+00
  0.00000000E+00  0.00000000E+00  0.00000000E+00
  0.00000000E+00  0.00000000E+00  0.00000000E+00
  0.00000000E+00  0.00000000E+00  0.00000000E+00
  0.00000000E+00  0.00000000E+00  0.00000000E+00
  0.00000000E+00  0.00000000E+00  0.00000000E+00
  0.00000000E+00  0.00000000E+00  0.00000000E+00
  0.00000000E+00  0.00000000E+00  0.00000000E+00
  0.00000000E+00  0.00000000E+00  0.00000000E+00
  0.00000000E+00  0.00000000E+00  0.00000000E+00
  0.00000000E+00  0.00000000E+00  0.00000000E+00
  0.00000000E+00  0.00000000E+00  0.00000000E+00
  0.00000000E+00  0.00000000E+00  0.00000000E+00
  0.00000000E+00  0.00000000E+00  0.00000000E+00
  0.00000000E+00  0.00000000E+00  0.00000000E+00
  0.00000000E+00  0.00000000E+00  0.00000000E+00
  0.00000000E+00  0.00000000E+00  0.00000000E+00
