Au  O Pd                                
   1.00000000000000     
    11.0025815152626798    0.0000000000000000    0.0000000000000000
     5.5012907576313399    9.5285150994265617    0.0000000000000000
     0.0000000000000000    0.0000000000000000   26.1917850942952910
   Au   O    Pd
    24     8    24
Selective dynamics
Direct
  0.0833333333333357  0.0833333333333357  0.3817991009012260   F   F   F
  0.3333333333333357  0.8333333333333357  0.3817991009012260   F   F   F
  0.3333333333333357  0.5833333333333357  0.3817991009012260   F   F   F
  0.9219102315136735  0.1632066853523473  0.4829338044948601   T   T   T
  0.6682877137531595  0.9190518643980632  0.4775513061925060   T   T   T
  0.8333333333333357  0.8333333333333357  0.3817991009012260   F   F   F
  0.0833333333333357  0.3333333333333357  0.3817991009012260   F   F   F
  0.6655245579118545  0.6651061966478626  0.4770926011748928   T   T   T
  0.8333333333333357  0.5833333333333357  0.3817991009012260   F   F   F
  0.0833333333333357  0.5833333333333357  0.3817991009012260   F   F   F
  0.9220777450809026  0.6676160782844877  0.4778125172529324   T   T   T
  0.0833333333333357  0.8333333333333357  0.3817991009012260   F   F   F
  0.8333333333333357  0.3333333333333357  0.3817991009012260   F   F   F
  0.8333333333333357  0.0833333333333357  0.3817991009012260   F   F   F
  0.5833333333333357  0.8333333333333357  0.3817991009012260   F   F   F
  0.3333333333333357  0.0833333333333357  0.3817991009012260   F   F   F
  0.4982715881757930  0.5016814684922259  0.5656676347570655   T   T   T
  0.5833333333333357  0.5833333333333357  0.3817991009012260   F   F   F
  0.4121376657967197  0.4187984434857184  0.4779139072741472   T   T   T
  0.3333333333333357  0.3333333333333357  0.3817991009012260   F   F   F
  0.5833333333333357  0.3333333333333357  0.3817991009012260   F   F   F
  0.2505289624301029  0.2465612585751906  0.5640419703215496   T   T   T
  0.5833333333333357  0.0833333333333357  0.3817991009012260   F   F   F
  0.6705081436417786  0.1660027213944794  0.4832130302685001   T   T   T
  0.3524001703041539  0.3148660328860946  0.6183159483365941   T   T   T
  0.0967408877202729  0.0987283674666307  0.6187869613220536   T   T   T
  0.0960130485330484  0.8223704160270801  0.6236513300438079   T   T   T
  0.0757321915247118  0.5605609434430047  0.6179327570592775   T   T   T
  0.7985958591833759  0.8314335438908481  0.6186327048922708   T   T   T
  0.3578140291071758  0.8266871413773229  0.6144823597737609   T   T   T
  0.8245179542483604  0.3594374283740871  0.6149380788934001   T   T   T
  0.8108572537001493  0.0941204897299525  0.6218125428356434   T   T   T
  0.5036870239279292  0.2457744863470676  0.5679513668371626   T   T   T
  0.4999145347551248 -0.0016487562698824  0.5633878935418428   T   T   T
  0.1669456766634885  0.4172329079222817  0.4750121459300857   T   T   T
  0.4167264788451279  0.1669860110469150  0.4739181343873097   T   T   T
  0.7435557937201437  0.7460204576781913  0.5657312043240397   T   T   T
  0.2559075906933014  0.7443550439919964  0.5758960356012979   T   T   T
  0.1677163737994714  0.9144112420612968  0.4795695887006405   T   T   T
  0.1671298258962402  0.6682290667946523  0.4863131441968339   T   T   T
  0.1675289405585783  0.1656714395031279  0.4781792818991986   T   T   T
  0.4119396669148299  0.9191837268239745  0.4755814817922089   T   T   T
  0.6691490875674105  0.4134779736614171  0.4760551373001482   T   T   T
  0.7444322942993156  0.5069658749514370  0.5640638437579545   T   T   T
  0.5050402944665224  0.7479052665904111  0.5636372384777225   T   T   T
 -0.0051940093922956  0.7472553206648325  0.5837578344526730   T   T   T
  0.9233231916407073  0.9144262761335110  0.4861130845538545   T   T   T
  0.7381736296826001  0.0023493043879292  0.5760592617768026   T   T   T
 -0.0001107186258868  0.0019483526784255  0.5844186631260747   T   T   T
 -0.0036750939476076  0.4982930183532086  0.5639927247068878   T   T   T
  0.2558735391555034  0.4975332468927691  0.5805148711764552   T   T   T
  0.7407723269451624  0.2592345365792031  0.5766141167674804   T   T   T
  0.0008481773407818  0.2590091948889490  0.5717987997460082   T   T   T
  0.9206418820498178  0.4135372881405882  0.4772565344329041   T   T   T
  0.2560982515764014  0.0014095411389218  0.5713184557687568   T   T   T
  0.4118949584633548  0.6693268710577600  0.4758509460856390   T   T   T
 
  0.00000000E+00  0.00000000E+00  0.00000000E+00
  0.00000000E+00  0.00000000E+00  0.00000000E+00
  0.00000000E+00  0.00000000E+00  0.00000000E+00
  0.00000000E+00  0.00000000E+00  0.00000000E+00
  0.00000000E+00  0.00000000E+00  0.00000000E+00
  0.00000000E+00  0.00000000E+00  0.00000000E+00
  0.00000000E+00  0.00000000E+00  0.00000000E+00
  0.00000000E+00  0.00000000E+00  0.00000000E+00
  0.00000000E+00  0.00000000E+00  0.00000000E+00
  0.00000000E+00  0.00000000E+00  0.00000000E+00
  0.00000000E+00  0.00000000E+00  0.00000000E+00
  0.00000000E+00  0.00000000E+00  0.00000000E+00
  0.00000000E+00  0.00000000E+00  0.00000000E+00
  0.00000000E+00  0.00000000E+00  0.00000000E+00
  0.00000000E+00  0.00000000E+00  0.00000000E+00
  0.00000000E+00  0.00000000E+00  0.00000000E+00
  0.00000000E+00  0.00000000E+00  0.00000000E+00
  0.00000000E+00  0.00000000E+00  0.00000000E+00
  0.00000000E+00  0.00000000E+00  0.00000000E+00
  0.00000000E+00  0.00000000E+00  0.00000000E+00
  0.00000000E+00  0.00000000E+00  0.00000000E+00
  0.00000000E+00  0.00000000E+00  0.00000000E+00
  0.00000000E+00  0.00000000E+00  0.00000000E+00
  0.00000000E+00  0.00000000E+00  0.00000000E+00
  0.00000000E+00  0.00000000E+00  0.00000000E+00
  0.00000000E+00  0.00000000E+00  0.00000000E+00
  0.00000000E+00  0.00000000E+00  0.00000000E+00
  0.00000000E+00  0.00000000E+00  0.00000000E+00
  0.00000000E+00  0.00000000E+00  0.00000000E+00
  0.00000000E+00  0.00000000E+00  0.00000000E+00
  0.00000000E+00  0.00000000E+00  0.00000000E+00
  0.00000000E+00  0.00000000E+00  0.00000000E+00
  0.00000000E+00  0.00000000E+00  0.00000000E+00
  0.00000000E+00  0.00000000E+00  0.00000000E+00
  0.00000000E+00  0.00000000E+00  0.00000000E+00
  0.00000000E+00  0.00000000E+00  0.00000000E+00
  0.00000000E+00  0.00000000E+00  0.00000000E+00
  0.00000000E+00  0.00000000E+00  0.00000000E+00
  0.00000000E+00  0.00000000E+00  0.00000000E+00
  0.00000000E+00  0.00000000E+00  0.00000000E+00
  0.00000000E+00  0.00000000E+00  0.00000000E+00
  0.00000000E+00  0.00000000E+00  0.00000000E+00
  0.00000000E+00  0.00000000E+00  0.00000000E+00
  0.00000000E+00  0.00000000E+00  0.00000000E+00
  0.00000000E+00  0.00000000E+00  0.00000000E+00
  0.00000000E+00  0.00000000E+00  0.00000000E+00
  0.00000000E+00  0.00000000E+00  0.00000000E+00
  0.00000000E+00  0.00000000E+00  0.00000000E+00
  0.00000000E+00  0.00000000E+00  0.00000000E+00
  0.00000000E+00  0.00000000E+00  0.00000000E+00
  0.00000000E+00  0.00000000E+00  0.00000000E+00
  0.00000000E+00  0.00000000E+00  0.00000000E+00
  0.00000000E+00  0.00000000E+00  0.00000000E+00
  0.00000000E+00  0.00000000E+00  0.00000000E+00
  0.00000000E+00  0.00000000E+00  0.00000000E+00
  0.00000000E+00  0.00000000E+00  0.00000000E+00
