Au Pd                                   
   1.00000000000000     
    11.0025815152626798    0.0000000000000000    0.0000000000000000
     5.5012907576313399    9.5285150994265617    0.0000000000000000
     0.0000000000000000    0.0000000000000000   24.4917850942952882
   Au   Pd
    24    24
Direct
  0.0846883516389847  0.0843389106416650  0.3951128530118307
  0.5004524360975464  0.2502958931341698  0.6024776010533086
  0.5833227609263135  0.8325891091947852  0.3921867828987676
  0.4172431755546493  0.9187328783643602  0.5025373676743710
  0.5815321344015948  0.0840194662641340  0.3999686692861881
  0.6663324389853569  0.9187883011536693  0.5022433084548996
  0.1666208787106612  0.9175388819653281  0.5014034305128078
  0.3336201547355241  0.8333311169026272  0.3928948090162880
  0.8317363858538535  0.0847535320356709  0.3956102036978565
  0.1675521023464974  0.6642077107261957  0.5006236950186171
  0.3347176808647137  0.5801117183527543  0.3949988275680012
  0.5849649409219559  0.5811659045010419  0.3956203491393078
  0.2499336082274866 -0.0004059173593439  0.6090448847345028
  0.3328151980392131  0.3309264298652880  0.4020213829128920
  0.8340816078112412  0.3343611461253950  0.3988682661397734
  0.9136819991945384  0.1707571741574655  0.5017700590950815
  0.8332065041494298  0.8308279185758787  0.3967514218562140
  0.6697846470372754  0.6645647123141040  0.5008671335427544
  0.1664674134101623  0.1704952786694102  0.5035039840988016
 -0.0008578365983791  0.5005239006133768  0.6029593737983266
  0.0817080095376396  0.5803329171692132  0.3990234933906655
  0.9153201853760474  0.9176383991069396  0.5006870752782618
  0.0832298680566600  0.8323868251873165  0.3904931496164514
  0.4184817952213408  0.6639353530454559  0.5005650386713874
  0.7505968325113145  0.2509899614966607  0.5981091762076951
  0.8337350427795251  0.5819238198229040  0.4042022487709192
  0.6648436134204562  0.1694833616938997  0.5012181889022634
  0.5008220958511187  0.7492022756761082  0.5986589036285441
  0.7482275454210622  0.4996189409529910  0.5979469462823729
  0.7511334038794019 -0.0002359665032790  0.5988421820478377
  0.5000596518149577  0.5008814346993212  0.5976319022834438
  0.6667586396124285  0.4164374198188501  0.5004770756183519
  0.2497905347285885  0.7492034467050143  0.5985464822503764
  0.5834922719359040  0.3329638253733522  0.4045736854894700
  0.5008090880585131 -0.0006296393320166  0.6003687606795309
  0.4165727262295615  0.1707160353671450  0.5029425823076741
  0.2500537039162938  0.5008330239587089  0.5978982524315656
  0.2499498870467132  0.2500924582047430  0.6003720137967141
  0.1663575421046909  0.4177718650837717  0.5024645758832924
  0.3328793948017771  0.0817080703207569  0.4057591592309148
 -0.0006757302388688  0.7511794193918558  0.5980786148988166
  0.9183710790629084  0.6650545450502631  0.5018804536895605
 -0.0014068146751600  0.2502629232327062  0.6000834144394502
  0.9169276926515765  0.4183808723211530  0.5024728871578666
  0.0833166312260679  0.3322896980518629  0.4060542261221285
 -0.0010000660824234  0.0000319526158157  0.5989735950312011
  0.4187370417441102  0.4145824757004959  0.5014022770550842
  0.7490117516991761  0.7510402195900150  0.5988092353275691
 
  0.00000000E+00  0.00000000E+00  0.00000000E+00
  0.00000000E+00  0.00000000E+00  0.00000000E+00
  0.00000000E+00  0.00000000E+00  0.00000000E+00
  0.00000000E+00  0.00000000E+00  0.00000000E+00
  0.00000000E+00  0.00000000E+00  0.00000000E+00
  0.00000000E+00  0.00000000E+00  0.00000000E+00
  0.00000000E+00  0.00000000E+00  0.00000000E+00
  0.00000000E+00  0.00000000E+00  0.00000000E+00
  0.00000000E+00  0.00000000E+00  0.00000000E+00
  0.00000000E+00  0.00000000E+00  0.00000000E+00
  0.00000000E+00  0.00000000E+00  0.00000000E+00
  0.00000000E+00  0.00000000E+00  0.00000000E+00
  0.00000000E+00  0.00000000E+00  0.00000000E+00
  0.00000000E+00  0.00000000E+00  0.00000000E+00
  0.00000000E+00  0.00000000E+00  0.00000000E+00
  0.00000000E+00  0.00000000E+00  0.00000000E+00
  0.00000000E+00  0.00000000E+00  0.00000000E+00
  0.00000000E+00  0.00000000E+00  0.00000000E+00
  0.00000000E+00  0.00000000E+00  0.00000000E+00
  0.00000000E+00  0.00000000E+00  0.00000000E+00
  0.00000000E+00  0.00000000E+00  0.00000000E+00
  0.00000000E+00  0.00000000E+00  0.00000000E+00
  0.00000000E+00  0.00000000E+00  0.00000000E+00
  0.00000000E+00  0.00000000E+00  0.00000000E+00
  0.00000000E+00  0.00000000E+00  0.00000000E+00
  0.00000000E+00  0.00000000E+00  0.00000000E+00
  0.00000000E+00  0.00000000E+00  0.00000000E+00
  0.00000000E+00  0.00000000E+00  0.00000000E+00
  0.00000000E+00  0.00000000E+00  0.00000000E+00
  0.00000000E+00  0.00000000E+00  0.00000000E+00
  0.00000000E+00  0.00000000E+00  0.00000000E+00
  0.00000000E+00  0.00000000E+00  0.00000000E+00
  0.00000000E+00  0.00000000E+00  0.00000000E+00
  0.00000000E+00  0.00000000E+00  0.00000000E+00
  0.00000000E+00  0.00000000E+00  0.00000000E+00
  0.00000000E+00  0.00000000E+00  0.00000000E+00
  0.00000000E+00  0.00000000E+00  0.00000000E+00
  0.00000000E+00  0.00000000E+00  0.00000000E+00
  0.00000000E+00  0.00000000E+00  0.00000000E+00
  0.00000000E+00  0.00000000E+00  0.00000000E+00
  0.00000000E+00  0.00000000E+00  0.00000000E+00
  0.00000000E+00  0.00000000E+00  0.00000000E+00
  0.00000000E+00  0.00000000E+00  0.00000000E+00
  0.00000000E+00  0.00000000E+00  0.00000000E+00
  0.00000000E+00  0.00000000E+00  0.00000000E+00
  0.00000000E+00  0.00000000E+00  0.00000000E+00
  0.00000000E+00  0.00000000E+00  0.00000000E+00
  0.00000000E+00  0.00000000E+00  0.00000000E+00
