Au Pd                                   
   1.00000000000000     
    11.0025815152626798    0.0000000000000000    0.0000000000000000
     5.5012907576313399    9.5285150994265617    0.0000000000000000
     0.0000000000000000    0.0000000000000000   24.4917850942952882
   Au   Pd
    24    24
Selective dynamics
Direct
  0.3333333333333357  0.3333333333333357  0.4083001692812189   F   F   F
  0.0833333333333357  0.5833333333333357  0.4083001692812189   F   F   F
  0.6683169747160241  0.4167752821666254  0.5072458554500863   T   T   T
  0.8333333333333357  0.8333333333333357  0.4083001692812189   F   F   F
  0.9165001671956081  0.1650581843813653  0.5057375772538407   T   T   T
  0.8333333333333357  0.5833333333333357  0.4083001692812189   F   F   F
 -0.0038143801282352  0.5024604523775280  0.6110947440932980   T   T   T
  0.0833333333333357  0.8333333333333357  0.4083001692812189   F   F   F
  0.7499871421201493  0.2512206395311409  0.6110989494830552   T   T   T
  0.0000638012048776  0.7516493060069313  0.6099083783129626   T   T   T
  0.4175843400920643  0.6660541945412037  0.5060278730323218   T   T   T
  0.1657856707731604  0.1661095121030490  0.5065902438620808   T   T   T
 -0.0005519397506921  0.2495115761410298  0.6119796010477271   T   T   T
  0.1661882529267747  0.4158947144209808  0.5101964034738374   T   T   T
  0.2491621862967291  0.2494613631988123  0.6161155426933167   T   T   T
  0.7503708540721027 -0.0007854238777005  0.6083692226258951   T   T   T
  0.1666824771226474  0.6668765012955624  0.5092816824510386   T   T   T
  0.4179825250336504  0.9151250266139751  0.5075225167027652   T   T   T
  0.5833333333333357  0.8333333333333357  0.4083001692812189   F   F   F
  0.4210939443168121  0.1644406149789455  0.5077275166391292   T   T   T
  0.4993961233667920 -0.0030569024746219  0.6124295297576152   T   T   T
  0.5833333333333357  0.3333333333333357  0.4083001692812189   F   F   F
  0.4965159949975677  0.5047888706455672  0.6109421126865008   T   T   T
  0.4980346667321209  0.2520911064366590  0.6105531991094335   T   T   T
  0.2486738027944609  0.5015640584228576  0.6067860649746937   T   T   T
  0.3333333333333357  0.5833333333333357  0.4083001692812189   F   F   F
  0.2490218746650376 -0.0009994335660910  0.6046454825842310   T   T   T
  0.3333333333333357  0.0833333333333357  0.4083001692812189   F   F   F
  0.0012408248879532  0.0005348796675655  0.6036201236167023   T   T   T
  0.9153355592098199  0.6667748263955838  0.5096762424769032   T   T   T
  0.9161776012882872  0.4179827329639175  0.5075611591654272   T   T   T
  0.0833333333333357  0.3333333333333357  0.4083001692812189   F   F   F
  0.3333333333333357  0.8333333333333357  0.4083001692812189   F   F   F
  0.9150775616723268  0.9165799194334789  0.5077312702411977   T   T   T
  0.1654502696260345  0.9163108037879527  0.5063560684021944   T   T   T
  0.0833333333333357  0.0833333333333357  0.4083001692812189   F   F   F
  0.5833333333333357  0.0833333333333357  0.4083001692812189   F   F   F
  0.4182648328943760  0.4156122455612301  0.5090613167608434   T   T   T
  0.2489221865640401  0.7540079179109977  0.6048786543007326   T   T   T
  0.6694610026286005  0.6662201799402782  0.5072602056733807   T   T   T
  0.6682617595359803  0.1646094714642070  0.5074259183366215   T   T   T
  0.8333333333333357  0.0833333333333357  0.4083001692812189   F   F   F
  0.4991496488081095  0.7505634916773077  0.6045967600228379   T   T   T
  0.7482260632238488  0.5025466107675925  0.6042598441932790   T   T   T
  0.8333333333333357  0.3333333333333357  0.4083001692812189   F   F   F
  0.5833333333333357  0.5833333333333357  0.4083001692812189   F   F   F
  0.6699131243247939  0.9155131831590341  0.5080846271362222   T   T   T
  0.7471253389988086  0.7496598502654218  0.6040702858148552   T   T   T
 
  0.00000000E+00  0.00000000E+00  0.00000000E+00
  0.00000000E+00  0.00000000E+00  0.00000000E+00
  0.00000000E+00  0.00000000E+00  0.00000000E+00
  0.00000000E+00  0.00000000E+00  0.00000000E+00
  0.00000000E+00  0.00000000E+00  0.00000000E+00
  0.00000000E+00  0.00000000E+00  0.00000000E+00
  0.00000000E+00  0.00000000E+00  0.00000000E+00
  0.00000000E+00  0.00000000E+00  0.00000000E+00
  0.00000000E+00  0.00000000E+00  0.00000000E+00
  0.00000000E+00  0.00000000E+00  0.00000000E+00
  0.00000000E+00  0.00000000E+00  0.00000000E+00
  0.00000000E+00  0.00000000E+00  0.00000000E+00
  0.00000000E+00  0.00000000E+00  0.00000000E+00
  0.00000000E+00  0.00000000E+00  0.00000000E+00
  0.00000000E+00  0.00000000E+00  0.00000000E+00
  0.00000000E+00  0.00000000E+00  0.00000000E+00
  0.00000000E+00  0.00000000E+00  0.00000000E+00
  0.00000000E+00  0.00000000E+00  0.00000000E+00
  0.00000000E+00  0.00000000E+00  0.00000000E+00
  0.00000000E+00  0.00000000E+00  0.00000000E+00
  0.00000000E+00  0.00000000E+00  0.00000000E+00
  0.00000000E+00  0.00000000E+00  0.00000000E+00
  0.00000000E+00  0.00000000E+00  0.00000000E+00
  0.00000000E+00  0.00000000E+00  0.00000000E+00
  0.00000000E+00  0.00000000E+00  0.00000000E+00
  0.00000000E+00  0.00000000E+00  0.00000000E+00
  0.00000000E+00  0.00000000E+00  0.00000000E+00
  0.00000000E+00  0.00000000E+00  0.00000000E+00
  0.00000000E+00  0.00000000E+00  0.00000000E+00
  0.00000000E+00  0.00000000E+00  0.00000000E+00
  0.00000000E+00  0.00000000E+00  0.00000000E+00
  0.00000000E+00  0.00000000E+00  0.00000000E+00
  0.00000000E+00  0.00000000E+00  0.00000000E+00
  0.00000000E+00  0.00000000E+00  0.00000000E+00
  0.00000000E+00  0.00000000E+00  0.00000000E+00
  0.00000000E+00  0.00000000E+00  0.00000000E+00
  0.00000000E+00  0.00000000E+00  0.00000000E+00
  0.00000000E+00  0.00000000E+00  0.00000000E+00
  0.00000000E+00  0.00000000E+00  0.00000000E+00
  0.00000000E+00  0.00000000E+00  0.00000000E+00
  0.00000000E+00  0.00000000E+00  0.00000000E+00
  0.00000000E+00  0.00000000E+00  0.00000000E+00
  0.00000000E+00  0.00000000E+00  0.00000000E+00
  0.00000000E+00  0.00000000E+00  0.00000000E+00
  0.00000000E+00  0.00000000E+00  0.00000000E+00
  0.00000000E+00  0.00000000E+00  0.00000000E+00
  0.00000000E+00  0.00000000E+00  0.00000000E+00
  0.00000000E+00  0.00000000E+00  0.00000000E+00
