Au Pd                                   
   1.00000000000000     
    11.0025815152626798    0.0000000000000000    0.0000000000000000
     5.5012907576313399    9.5285150994265617    0.0000000000000000
     0.0000000000000000    0.0000000000000000   24.4917850942952882
   Au   Pd
    24    24
Direct
  0.0809586298850534  0.0866888135126199  0.3945660154515923
  0.7494318769422457  0.5013355600184152  0.6063635430527914
  0.6684812659626639  0.6660073448455371  0.5003110296903173
  0.7488068885909713  0.2490297499574624  0.6044717582954600
  0.6679047542991868  0.4148969003453629  0.5014038874255687
  0.8295958721349670  0.0860836436179132  0.3999005096823491
  0.4177951920984398  0.9167529587809747  0.4968924172731186
  0.5871688632060914  0.5822853705995116  0.3947979988084858
  0.4981546761190020  0.2483439852832309  0.6027456170281213
  0.4156414087601992  0.4151885862195043  0.4999697239225348
  0.1660595819962450  0.9166306400721529  0.4980050744039677
  0.3357421353930108  0.8332323351192522  0.3910811944996903
  0.1655815113703664  0.6650245377407636  0.5000121830561256
  0.3336934606788265  0.5811716098068836  0.3936487132451247
  0.2547068044519527  0.7468420259323434  0.6013419306807266
  0.7483204912935940  0.7519319778437702  0.6044217784829563
  0.0027070396380485  0.2498261833598712  0.6028571693785381
  0.1650167827785013  0.1693102433545992  0.4987032840224269
  0.3362058682654917  0.0856007200884028  0.3932630047669117
  0.0016699738718220 -0.0011123576393420  0.6045878177271297
  0.0011452173315104  0.7472087520448650  0.6059958958622939
  0.9132783536807885  0.9175029454857810  0.5015970409701609
  0.0804850694552021  0.8331662606439258  0.3937415006227791
  0.0809646679688466  0.3390118473941291  0.3974758171260728
  0.6659973926153715  0.1653965614780432  0.5018371560990045
  0.7483764260384050 -0.0004765250487234  0.5990605244763664
  0.8335549781757495  0.5862043553234104  0.4054802732113257
  0.9174942130154317  0.4166360346907017  0.5019560550658270
  0.4996462984074386  0.7495942409622878  0.5948191490924249
  0.9157187905610418  0.1668965013876754  0.5021300250104521
  0.8320792311665899  0.8324525844274901  0.4057707444450819
  0.8327541350954590  0.3351572209203053  0.4057036661571724
  0.0818198695511195  0.5850080831359717  0.4043636101033504
  0.3342455264690611  0.3340511315836497  0.4027878823371401
  0.4997479792796504  0.4998921750982330  0.5970393857392661
  0.2531145895348664 -0.0010855668821321  0.5952156145604582
  0.9167207017279027  0.6656173423797124  0.5032695900227758
  0.0027737749784126  0.4981752047507144  0.5976691377597820
  0.5829729373084613  0.3329560438559160  0.4036997561393967
  0.4982034116623144 -0.0003058741202260  0.5954123956406323
  0.4174455038213911  0.1664633137216205  0.4991417805332682
  0.5833463241977800  0.0837151781667491  0.4049298233051416
  0.6668565763320297  0.9166362203247058  0.5012485060120038
  0.2503390889150504  0.4978932134152345  0.5977450545630565
  0.2502837430366655  0.2500100060009255  0.5954792058599868
  0.1643733571307262  0.4165056632016954  0.4996500440809078
  0.5860270325806147  0.8349169583291018  0.4016230073280690
  0.4165917322254402  0.6657292984690062  0.4958127069818667
 
  0.00000000E+00  0.00000000E+00  0.00000000E+00
  0.00000000E+00  0.00000000E+00  0.00000000E+00
  0.00000000E+00  0.00000000E+00  0.00000000E+00
  0.00000000E+00  0.00000000E+00  0.00000000E+00
  0.00000000E+00  0.00000000E+00  0.00000000E+00
  0.00000000E+00  0.00000000E+00  0.00000000E+00
  0.00000000E+00  0.00000000E+00  0.00000000E+00
  0.00000000E+00  0.00000000E+00  0.00000000E+00
  0.00000000E+00  0.00000000E+00  0.00000000E+00
  0.00000000E+00  0.00000000E+00  0.00000000E+00
  0.00000000E+00  0.00000000E+00  0.00000000E+00
  0.00000000E+00  0.00000000E+00  0.00000000E+00
  0.00000000E+00  0.00000000E+00  0.00000000E+00
  0.00000000E+00  0.00000000E+00  0.00000000E+00
  0.00000000E+00  0.00000000E+00  0.00000000E+00
  0.00000000E+00  0.00000000E+00  0.00000000E+00
  0.00000000E+00  0.00000000E+00  0.00000000E+00
  0.00000000E+00  0.00000000E+00  0.00000000E+00
  0.00000000E+00  0.00000000E+00  0.00000000E+00
  0.00000000E+00  0.00000000E+00  0.00000000E+00
  0.00000000E+00  0.00000000E+00  0.00000000E+00
  0.00000000E+00  0.00000000E+00  0.00000000E+00
  0.00000000E+00  0.00000000E+00  0.00000000E+00
  0.00000000E+00  0.00000000E+00  0.00000000E+00
  0.00000000E+00  0.00000000E+00  0.00000000E+00
  0.00000000E+00  0.00000000E+00  0.00000000E+00
  0.00000000E+00  0.00000000E+00  0.00000000E+00
  0.00000000E+00  0.00000000E+00  0.00000000E+00
  0.00000000E+00  0.00000000E+00  0.00000000E+00
  0.00000000E+00  0.00000000E+00  0.00000000E+00
  0.00000000E+00  0.00000000E+00  0.00000000E+00
  0.00000000E+00  0.00000000E+00  0.00000000E+00
  0.00000000E+00  0.00000000E+00  0.00000000E+00
  0.00000000E+00  0.00000000E+00  0.00000000E+00
  0.00000000E+00  0.00000000E+00  0.00000000E+00
  0.00000000E+00  0.00000000E+00  0.00000000E+00
  0.00000000E+00  0.00000000E+00  0.00000000E+00
  0.00000000E+00  0.00000000E+00  0.00000000E+00
  0.00000000E+00  0.00000000E+00  0.00000000E+00
  0.00000000E+00  0.00000000E+00  0.00000000E+00
  0.00000000E+00  0.00000000E+00  0.00000000E+00
  0.00000000E+00  0.00000000E+00  0.00000000E+00
  0.00000000E+00  0.00000000E+00  0.00000000E+00
  0.00000000E+00  0.00000000E+00  0.00000000E+00
  0.00000000E+00  0.00000000E+00  0.00000000E+00
  0.00000000E+00  0.00000000E+00  0.00000000E+00
  0.00000000E+00  0.00000000E+00  0.00000000E+00
  0.00000000E+00  0.00000000E+00  0.00000000E+00
