Au Pd                                   
   1.00000000000000     
    11.0025815152626798    0.0000000000000000    0.0000000000000000
     5.5012907576313399    9.5285150994265617    0.0000000000000000
     0.0000000000000000    0.0000000000000000   24.4917850942952882
   Au   Pd
    24    24
Direct
  0.8339797575224033  0.3337185277157876  0.3942497185146950
  0.8344923166853107  0.0827780184676795  0.3942775427440181
  0.5810014557666467  0.0856203209322948  0.3951279132854330
  0.6648930912561786  0.9175290570689509  0.4998872594165451
  0.1678326193849370  0.9149828820830613  0.5004837654445065
  0.3312938106805111  0.8335532053389235  0.3977482976662749
  0.2509505366607035  0.4979721374714058  0.6051987184286139
  0.1688715746005665  0.6663235893511720  0.5009771068509824
  0.6642722760585453  0.1666665926255569  0.4996534202761667
  0.1703717874914404  0.4145021338717975  0.5009048263783011
  0.4994489031811801  0.5010579509512143  0.6042677568107931
  0.6634337270076008  0.4171723462282512  0.5011681214443688
  0.1692800105250589  0.1647481449305605  0.5003474237382702
  0.5820081909429371  0.5838880788894302  0.3971188093533123
 -0.0015487408367229  0.7531365174954353  0.6036194171923370
  0.9161157489386319  0.1645913815432127  0.5003302448008240
  0.8336632867480078  0.8317096954779319  0.3963212410820836
  0.7504485028416625  0.5020507967076895  0.6069781305392449
  0.3312701668222593  0.0859109340305750  0.3964257601640972
  0.0028281524191195  0.2476530935009797  0.6070621508629206
  0.9168157466538011  0.4157051812340037  0.5012540236576867
  0.9169282097639854  0.6672166712792210  0.5010726006751252
  0.6639227869348453  0.6679507401571056  0.5006562631956927
  0.0851802810347402  0.5811900034645088  0.3953817928212404
  0.7495981733804166  0.0017740333659524  0.5969472193442701
  0.8330591602561298  0.5831552134091010  0.4025919591681805
  0.7508837536310620  0.2486896754579208  0.5987349675584003
  0.4994807010203203  0.7522054727630592  0.5967604379604259
  0.4163031159234846  0.9165409973846121  0.4986173613400096
  0.5824501156832995  0.8337322209512532  0.4015709784933422
  0.0822992228749268  0.0841082431469555  0.4016125986688570
  0.2504878872557363  0.7528437396924386  0.5986975486988033
  0.5011006909725497  0.2479386650976146  0.5973208298789813
  0.4162124128702099  0.4167155815362198  0.5023658151418219
  0.5811479994499142  0.3349198323879082  0.4031045131332802
  0.5001343620517176  0.0005602494106027  0.5963724944632317
  0.4170688200550179  0.1655236934690791  0.4992651370642142
  0.3338036552225226  0.5817010189878321  0.4043916377585631
  0.2531360645428972  0.2467570250954759  0.5982241738325021
  0.3332451204363509  0.3350140713550276  0.4034439139132543
  0.2532820107775798 -0.0017644230794121  0.5972884628530045
  0.9163940773531735  0.9159950978932430  0.4995595519740847
  0.0833765411390528  0.8326870278582342  0.4025103400857309
  0.0008216026418131  0.4995714727395830  0.5995546628423803
  0.0823868198745574  0.3341413082163413  0.4025879173658909
  0.0000367200179747  0.0005331392888368  0.5982680488624241
  0.4169937102843171  0.6665717864674896  0.5005562184385453
  0.7485430632006254  0.7524568562878828  0.5991409058162682
 
  0.00000000E+00  0.00000000E+00  0.00000000E+00
  0.00000000E+00  0.00000000E+00  0.00000000E+00
  0.00000000E+00  0.00000000E+00  0.00000000E+00
  0.00000000E+00  0.00000000E+00  0.00000000E+00
  0.00000000E+00  0.00000000E+00  0.00000000E+00
  0.00000000E+00  0.00000000E+00  0.00000000E+00
  0.00000000E+00  0.00000000E+00  0.00000000E+00
  0.00000000E+00  0.00000000E+00  0.00000000E+00
  0.00000000E+00  0.00000000E+00  0.00000000E+00
  0.00000000E+00  0.00000000E+00  0.00000000E+00
  0.00000000E+00  0.00000000E+00  0.00000000E+00
  0.00000000E+00  0.00000000E+00  0.00000000E+00
  0.00000000E+00  0.00000000E+00  0.00000000E+00
  0.00000000E+00  0.00000000E+00  0.00000000E+00
  0.00000000E+00  0.00000000E+00  0.00000000E+00
  0.00000000E+00  0.00000000E+00  0.00000000E+00
  0.00000000E+00  0.00000000E+00  0.00000000E+00
  0.00000000E+00  0.00000000E+00  0.00000000E+00
  0.00000000E+00  0.00000000E+00  0.00000000E+00
  0.00000000E+00  0.00000000E+00  0.00000000E+00
  0.00000000E+00  0.00000000E+00  0.00000000E+00
  0.00000000E+00  0.00000000E+00  0.00000000E+00
  0.00000000E+00  0.00000000E+00  0.00000000E+00
  0.00000000E+00  0.00000000E+00  0.00000000E+00
  0.00000000E+00  0.00000000E+00  0.00000000E+00
  0.00000000E+00  0.00000000E+00  0.00000000E+00
  0.00000000E+00  0.00000000E+00  0.00000000E+00
  0.00000000E+00  0.00000000E+00  0.00000000E+00
  0.00000000E+00  0.00000000E+00  0.00000000E+00
  0.00000000E+00  0.00000000E+00  0.00000000E+00
  0.00000000E+00  0.00000000E+00  0.00000000E+00
  0.00000000E+00  0.00000000E+00  0.00000000E+00
  0.00000000E+00  0.00000000E+00  0.00000000E+00
  0.00000000E+00  0.00000000E+00  0.00000000E+00
  0.00000000E+00  0.00000000E+00  0.00000000E+00
  0.00000000E+00  0.00000000E+00  0.00000000E+00
  0.00000000E+00  0.00000000E+00  0.00000000E+00
  0.00000000E+00  0.00000000E+00  0.00000000E+00
  0.00000000E+00  0.00000000E+00  0.00000000E+00
  0.00000000E+00  0.00000000E+00  0.00000000E+00
  0.00000000E+00  0.00000000E+00  0.00000000E+00
  0.00000000E+00  0.00000000E+00  0.00000000E+00
  0.00000000E+00  0.00000000E+00  0.00000000E+00
  0.00000000E+00  0.00000000E+00  0.00000000E+00
  0.00000000E+00  0.00000000E+00  0.00000000E+00
  0.00000000E+00  0.00000000E+00  0.00000000E+00
  0.00000000E+00  0.00000000E+00  0.00000000E+00
  0.00000000E+00  0.00000000E+00  0.00000000E+00
