Au  O Pd                                
   1.00000000000000     
    11.0025815152626798    0.0000000000000000    0.0000000000000000
     5.5012907576313399    9.5285150994265617    0.0000000000000000
     0.0000000000000000    0.0000000000000000   26.1917850942952910
   Au   O    Pd
    24     8    24
Selective dynamics
Direct
  0.0833333333333357  0.0833333333333357  0.3817991009012260   F   F   F
  0.8333333333333357  0.0833333333333357  0.3817991009012260   F   F   F
  0.8333333333333357  0.8333333333333357  0.3817991009012260   F   F   F
  0.0088347680712878  0.2713163615223683  0.5628651323950744   T   T   T
  0.0833333333333357  0.5833333333333357  0.3817991009012260   F   F   F
  0.6640752802075874  0.9206894326752828  0.4816712613092699   T   T   T
  0.7942172624082918 -0.0346895801815662  0.6086320641495524   T   T   T
  0.9158951653500838  0.1741082619330663  0.4742412313978404   T   T   T
  0.6637422358501073  0.1710459877403119  0.4851487867938306   T   T   T
  0.9158744989501365  0.9193152539323867  0.4747174388289564   T   T   T
  0.2481037063587419  0.0118235530891537  0.5615436926498677   T   T   T
  0.4544274598632220  0.7784964558242412  0.5979766553324570   T   T   T
  0.3333333333333357  0.0833333333333357  0.3817991009012260   F   F   F
  0.3333333333333357  0.3333333333333357  0.3817991009012260   F   F   F
  0.1675561850177851  0.4157780574097606  0.4806394241924836   T   T   T
  0.2305962581188152  0.2600952280411959  0.6256829266729914   T   T   T
  0.1697713948362218  0.6651247779168504  0.4721272254134750   T   T   T
  0.6668545143702260  0.6718410312851485  0.4732672053562868   T   T   T
  0.4187638378612681  0.6697755087014119  0.4749647887432068   T   T   T
  0.7585034452611301  0.7534979927476069  0.5827028789703889   T   T   T
  0.5833333333333357  0.0833333333333357  0.3817991009012260   F   F   F
  0.5833333333333357  0.5833333333333357  0.3817991009012260   F   F   F
  0.4829865266399183  0.0237799460417435  0.5708023713566808   T   T   T
  0.5833333333333357  0.3333333333333357  0.3817991009012260   F   F   F
  0.8751537624053312  0.0976686280713764  0.6194638264497561   T   T   T
  0.0794625126161052  0.6145470311926099  0.6129153268960387   T   T   T
  0.1285859802259220  0.1556860904039879  0.6291305393079871   T   T   T
  0.3391219231787679  0.3573144210291317  0.6242793205284666   T   T   T
  0.5935616623042467  0.3466674450371283  0.6102884105021492   T   T   T
  0.6079550428533494  0.5776718904974475  0.6145797832696207   T   T   T
  0.5853474324838180  0.0950757226303171  0.6219937461629368   T   T   T
  0.5783679988602293  0.8532424378999264  0.6269514098445315   T   T   T
  0.2491495573945975  0.7566321139456728  0.5603368667958150   T   T   T
  0.1676492274703323  0.9193522877615820  0.4727756209192424   T   T   T
  0.7564656888629958  0.5169933824099574  0.5615824783749127   T   T   T
  0.2557295800700357  0.5123693444267630  0.5722966827101112   T   T   T
  0.3333333333333357  0.5833333333333357  0.3817991009012260   F   F   F
  0.1681787188762674  0.1713081498617917  0.4710641329860327   T   T   T
  0.8333333333333357  0.5833333333333357  0.3817991009012260   F   F   F
  0.0012427583131837  0.7630119412125020  0.5605315209274974   T   T   T
  0.0833333333333357  0.8333333333333357  0.3817991009012260   F   F   F
  0.0013300047341479  0.5151019980882374  0.5706566928869492   T   T   T
  0.9145921767958693  0.6686992861141671  0.4755100822942256   T   T   T
  0.9169983441919891  0.4218102266673741  0.4748794344553009   T   T   T
  0.0833333333333357  0.3333333333333357  0.3817991009012260   F   F   F
  0.0076367908022868  0.0049664159926450  0.5616009528135364   T   T   T
  0.4175655410912274  0.4187331556697776  0.4796601646946037   T   T   T
  0.3333333333333357  0.8333333333333357  0.3817991009012260   F   F   F
  0.5833333333333357  0.8333333333333357  0.3817991009012260   F   F   F
  0.4154590943057731  0.9217506786829698  0.4754957361829854   T   T   T
  0.7689836762045235  0.2600737947557861  0.5712549728888061   T   T   T
  0.6677420562353655  0.4186466630737781  0.4756819947296563   T   T   T
  0.8333333333333357  0.3333333333333357  0.3817991009012260   F   F   F
  0.4990701148000946  0.5154449747231744  0.5680112656873182   T   T   T
  0.4151314978856210  0.1708095049280375  0.4803808674696972   T   T   T
  0.5000553983638736  0.2584192023311842  0.5716196564476479   T   T   T
 
  0.00000000E+00  0.00000000E+00  0.00000000E+00
  0.00000000E+00  0.00000000E+00  0.00000000E+00
  0.00000000E+00  0.00000000E+00  0.00000000E+00
  0.00000000E+00  0.00000000E+00  0.00000000E+00
  0.00000000E+00  0.00000000E+00  0.00000000E+00
  0.00000000E+00  0.00000000E+00  0.00000000E+00
  0.00000000E+00  0.00000000E+00  0.00000000E+00
  0.00000000E+00  0.00000000E+00  0.00000000E+00
  0.00000000E+00  0.00000000E+00  0.00000000E+00
  0.00000000E+00  0.00000000E+00  0.00000000E+00
  0.00000000E+00  0.00000000E+00  0.00000000E+00
  0.00000000E+00  0.00000000E+00  0.00000000E+00
  0.00000000E+00  0.00000000E+00  0.00000000E+00
  0.00000000E+00  0.00000000E+00  0.00000000E+00
  0.00000000E+00  0.00000000E+00  0.00000000E+00
  0.00000000E+00  0.00000000E+00  0.00000000E+00
  0.00000000E+00  0.00000000E+00  0.00000000E+00
  0.00000000E+00  0.00000000E+00  0.00000000E+00
  0.00000000E+00  0.00000000E+00  0.00000000E+00
  0.00000000E+00  0.00000000E+00  0.00000000E+00
  0.00000000E+00  0.00000000E+00  0.00000000E+00
  0.00000000E+00  0.00000000E+00  0.00000000E+00
  0.00000000E+00  0.00000000E+00  0.00000000E+00
  0.00000000E+00  0.00000000E+00  0.00000000E+00
  0.00000000E+00  0.00000000E+00  0.00000000E+00
  0.00000000E+00  0.00000000E+00  0.00000000E+00
  0.00000000E+00  0.00000000E+00  0.00000000E+00
  0.00000000E+00  0.00000000E+00  0.00000000E+00
  0.00000000E+00  0.00000000E+00  0.00000000E+00
  0.00000000E+00  0.00000000E+00  0.00000000E+00
  0.00000000E+00  0.00000000E+00  0.00000000E+00
  0.00000000E+00  0.00000000E+00  0.00000000E+00
  0.00000000E+00  0.00000000E+00  0.00000000E+00
  0.00000000E+00  0.00000000E+00  0.00000000E+00
  0.00000000E+00  0.00000000E+00  0.00000000E+00
  0.00000000E+00  0.00000000E+00  0.00000000E+00
  0.00000000E+00  0.00000000E+00  0.00000000E+00
  0.00000000E+00  0.00000000E+00  0.00000000E+00
  0.00000000E+00  0.00000000E+00  0.00000000E+00
  0.00000000E+00  0.00000000E+00  0.00000000E+00
  0.00000000E+00  0.00000000E+00  0.00000000E+00
  0.00000000E+00  0.00000000E+00  0.00000000E+00
  0.00000000E+00  0.00000000E+00  0.00000000E+00
  0.00000000E+00  0.00000000E+00  0.00000000E+00
  0.00000000E+00  0.00000000E+00  0.00000000E+00
  0.00000000E+00  0.00000000E+00  0.00000000E+00
  0.00000000E+00  0.00000000E+00  0.00000000E+00
  0.00000000E+00  0.00000000E+00  0.00000000E+00
  0.00000000E+00  0.00000000E+00  0.00000000E+00
  0.00000000E+00  0.00000000E+00  0.00000000E+00
  0.00000000E+00  0.00000000E+00  0.00000000E+00
  0.00000000E+00  0.00000000E+00  0.00000000E+00
  0.00000000E+00  0.00000000E+00  0.00000000E+00
  0.00000000E+00  0.00000000E+00  0.00000000E+00
  0.00000000E+00  0.00000000E+00  0.00000000E+00
  0.00000000E+00  0.00000000E+00  0.00000000E+00
