Au Pd                                   
   1.00000000000000     
    11.0025815152626798    0.0000000000000000    0.0000000000000000
     5.5012907576313399    9.5285150994265617    0.0000000000000000
     0.0000000000000000    0.0000000000000000   24.4917850942952882
   Au   Pd
    24    24
Direct
  0.2461471148933776  0.7526208641292684  0.6037413314518852
  0.5005144399392462  0.4991564807478256  0.6031655740942772
  0.5019152433587970 -0.0005161362965813  0.6037476388899302
  0.4137224946502570  0.1680392275856765  0.5000980079990986
  0.5823662852708559  0.0841189429220967  0.3919163685245856
  0.6658506914854863  0.9156766423146894  0.4976422134028379
  0.2475733620845462  0.5002164038000941  0.6035616873364731
  0.1679685992473159  0.6670633831337793  0.5000711820189935
  0.5011517427415664  0.7508376538493474  0.6021657966367410
  0.8339608008904390  0.0860932151314550  0.3928565892252327
  0.6660986439491515  0.1682899102846102  0.4993834550141010
  0.5005009600330957  0.2482307184539492  0.6057927268777528
  0.2467617982269462  0.0032480505344713  0.6009053361422078
  0.3317519628444597  0.3366546970395330  0.3988488055368902
  0.3316304766083857  0.0815223096036274  0.3979111733005378
  0.9176224435635468  0.1666553966131225  0.4989770707383703
  0.8341394862979491  0.8321872792273697  0.3907964495992475
  0.7523604057645955  0.4994772607452112  0.6015069097506851
  0.8341274960109002  0.5809567778880208  0.3974017338103937
  0.7541613025742052  0.2460041435760153  0.6053577091458558
  0.5813570250451982  0.5831645389207716  0.4024873036153058
  0.0001986456823456  0.4998599787369957  0.6014504607390019
  0.0874292116751137  0.8322596712774396  0.3955174391706394
  0.9163442804407210  0.6659042538473415  0.4979731340589876
  0.4159271102649690  0.9153195709164624  0.5013610889259077
  0.7518058748009478 -0.0014526843633962  0.5939630763869919
  0.6656296262671935  0.6652154573518079  0.5004371516806728
  0.6659902778783952  0.4183364531358651  0.5022589412137148
  0.8339674671233659  0.3326628186235854  0.4038951816962830
  0.4177428172707358  0.6666493988230140  0.5030536410161225
  0.5825696622476527  0.8330937177101115  0.4026129161730203
  0.0835437985453502  0.0844486461690887  0.4026317225886233
  0.5832869754470912  0.3340356619001421  0.4048806421940189
  0.1687142193712713  0.9160343887688801  0.5001034832720618
  0.3330613344091820  0.8337070739219882  0.4062403343095193
  0.3340245967639720  0.5830582117615071  0.4058353174664979
  0.2489434292040734  0.2499622473456041  0.5973479931176883
  0.1660942974225479  0.4156649621747466  0.5003379222991967
  0.1668955960066451  0.1659707882059482  0.4992289008638227
 -0.0031634264287165  0.7539424316839631  0.5945419637591746
  0.9176249354170806  0.9169621581500792  0.4943236173037790
  0.0843716878280434  0.5821418132202981  0.4019626615574614
  0.0011156310711153  0.2488685700554423  0.5956651274329989
  0.9166504751585762  0.4168677902778406  0.4998512395466171
  0.0827495827474990  0.3332738223281302  0.4038516542494364
 -0.0013258620885932 -0.0006627328381230  0.5939274472223218
  0.4166820128429615  0.4174910223373742  0.5025726596593260
  0.7514429671501400  0.7506867482735103  0.5958392189847115
 
  0.00000000E+00  0.00000000E+00  0.00000000E+00
  0.00000000E+00  0.00000000E+00  0.00000000E+00
  0.00000000E+00  0.00000000E+00  0.00000000E+00
  0.00000000E+00  0.00000000E+00  0.00000000E+00
  0.00000000E+00  0.00000000E+00  0.00000000E+00
  0.00000000E+00  0.00000000E+00  0.00000000E+00
  0.00000000E+00  0.00000000E+00  0.00000000E+00
  0.00000000E+00  0.00000000E+00  0.00000000E+00
  0.00000000E+00  0.00000000E+00  0.00000000E+00
  0.00000000E+00  0.00000000E+00  0.00000000E+00
  0.00000000E+00  0.00000000E+00  0.00000000E+00
  0.00000000E+00  0.00000000E+00  0.00000000E+00
  0.00000000E+00  0.00000000E+00  0.00000000E+00
  0.00000000E+00  0.00000000E+00  0.00000000E+00
  0.00000000E+00  0.00000000E+00  0.00000000E+00
  0.00000000E+00  0.00000000E+00  0.00000000E+00
  0.00000000E+00  0.00000000E+00  0.00000000E+00
  0.00000000E+00  0.00000000E+00  0.00000000E+00
  0.00000000E+00  0.00000000E+00  0.00000000E+00
  0.00000000E+00  0.00000000E+00  0.00000000E+00
  0.00000000E+00  0.00000000E+00  0.00000000E+00
  0.00000000E+00  0.00000000E+00  0.00000000E+00
  0.00000000E+00  0.00000000E+00  0.00000000E+00
  0.00000000E+00  0.00000000E+00  0.00000000E+00
  0.00000000E+00  0.00000000E+00  0.00000000E+00
  0.00000000E+00  0.00000000E+00  0.00000000E+00
  0.00000000E+00  0.00000000E+00  0.00000000E+00
  0.00000000E+00  0.00000000E+00  0.00000000E+00
  0.00000000E+00  0.00000000E+00  0.00000000E+00
  0.00000000E+00  0.00000000E+00  0.00000000E+00
  0.00000000E+00  0.00000000E+00  0.00000000E+00
  0.00000000E+00  0.00000000E+00  0.00000000E+00
  0.00000000E+00  0.00000000E+00  0.00000000E+00
  0.00000000E+00  0.00000000E+00  0.00000000E+00
  0.00000000E+00  0.00000000E+00  0.00000000E+00
  0.00000000E+00  0.00000000E+00  0.00000000E+00
  0.00000000E+00  0.00000000E+00  0.00000000E+00
  0.00000000E+00  0.00000000E+00  0.00000000E+00
  0.00000000E+00  0.00000000E+00  0.00000000E+00
  0.00000000E+00  0.00000000E+00  0.00000000E+00
  0.00000000E+00  0.00000000E+00  0.00000000E+00
  0.00000000E+00  0.00000000E+00  0.00000000E+00
  0.00000000E+00  0.00000000E+00  0.00000000E+00
  0.00000000E+00  0.00000000E+00  0.00000000E+00
  0.00000000E+00  0.00000000E+00  0.00000000E+00
  0.00000000E+00  0.00000000E+00  0.00000000E+00
  0.00000000E+00  0.00000000E+00  0.00000000E+00
  0.00000000E+00  0.00000000E+00  0.00000000E+00
