Au Pd                                   
   1.00000000000000     
    11.0025815152626798    0.0000000000000000    0.0000000000000000
     5.5012907576313399    9.5285150994265617    0.0000000000000000
     0.0000000000000000    0.0000000000000000   24.4917850942952882
   Au   Pd
    24    24
Selective dynamics
Direct
  0.2506165384179007  0.7479383990099761  0.6123785822561323   T   T   T
  0.6672531851143799  0.4143230301960221  0.5104945771760312   T   T   T
  0.0833333333333357  0.8333333333333357  0.4083001692812189   F   F   F
  0.9187318807716739  0.6688472605022897  0.5078274075874563   T   T   T
  0.8333333333333357  0.5833333333333357  0.4083001692812189   F   F   F
  0.3333333333333357  0.0833333333333357  0.4083001692812189   F   F   F
 -0.0019792904969962  0.2490931604708256  0.6137948835188847   T   T   T
  0.9196668004396155  0.4152105976198086  0.5104283475357282   T   T   T
  0.6674183631392515  0.6679118391777098  0.5133076552768886   T   T   T
  0.7481540386373334  0.5012501992112564  0.6167173034053405   T   T   T
 -0.0013856051994135  0.7508856266279220  0.6094640010291021   T   T   T
  0.2514248255780325 -0.0012980205763525  0.6157495129227462   T   T   T
  0.5016769900042637  0.2495955741420836  0.6109187844361010   T   T   T
  0.4135283958494237  0.4161913695398906  0.5059979253472787   T   T   T
  0.8333333333333357  0.3333333333333357  0.4083001692812189   F   F   F
  0.2497737140259203  0.2515146974426288  0.6104291046152550   T   T   T
  0.6691829810090557  0.1634307597036120  0.5074043775822322   T   T   T
  0.4167384591288782  0.9181450228191084  0.5108936179031365   T   T   T
  0.1629996944875338  0.9183798247367203  0.5080601727905030   T   T   T
  0.5833333333333357  0.8333333333333357  0.4083001692812189   F   F   F
  0.5833333333333357  0.0833333333333357  0.4083001692812189   F   F   F
  0.4136342550704892  0.6673582345742325  0.5087959930335657   T   T   T
  0.5833333333333357  0.5833333333333357  0.4083001692812189   F   F   F
  0.1661281219269917  0.1680677056780883  0.5076952562368080   T   T   T
  0.9164290129849647  0.9167675732959590  0.5068547236518602   T   T   T
  0.5833333333333357  0.3333333333333357  0.4083001692812189   F   F   F
  0.3333333333333357  0.3333333333333357  0.4083001692812189   F   F   F
  0.3333333333333357  0.5833333333333357  0.4083001692812189   F   F   F
  0.4165911145296951  0.1671564632886854  0.5094870700246618   T   T   T
  0.2493454964486948  0.4997452280205734  0.6038020637551244   T   T   T
  0.3333333333333357  0.8333333333333357  0.4083001692812189   F   F   F
  0.6675339573399204  0.9173643243813832  0.5084250637839373   T   T   T
 -0.0004678462294406  0.5010572616800819  0.6060172867870799   T   T   T
  0.1652510908183381  0.6666322350834057  0.5071208566364951   T   T   T
  0.0833333333333357  0.5833333333333357  0.4083001692812189   F   F   F
  0.0833333333333357  0.0833333333333357  0.4083001692812189   F   F   F
 -0.0016703145812080  0.0003763150979224  0.6053639768357114   T   T   T
  0.9168664037541904  0.1655707657361157  0.5077057500926333   T   T   T
  0.5035511783926887 -0.0022654348992208  0.6063241330851562   T   T   T
  0.8333333333333357  0.0833333333333357  0.4083001692812189   F   F   F
  0.8333333333333357  0.8333333333333357  0.4083001692812189   F   F   F
  0.4996568787469634  0.4995621363784737  0.6069249408578911   T   T   T
  0.7503177314083416  0.0000555035499848  0.6045518173129051   T   T   T
  0.7511275589519817  0.2481674069997446  0.6066409215221977   T   T   T
  0.5002241493491454  0.7496680580315822  0.6091920460256716   T   T   T
  0.1678650477840167  0.4161999527222617  0.5060293514003564   T   T   T
  0.0833333333333357  0.3333333333333357  0.4083001692812189   F   F   F
  0.7490367177155239  0.7521372898963457  0.6076552397240839   T   T   T
 
  0.00000000E+00  0.00000000E+00  0.00000000E+00
  0.00000000E+00  0.00000000E+00  0.00000000E+00
  0.00000000E+00  0.00000000E+00  0.00000000E+00
  0.00000000E+00  0.00000000E+00  0.00000000E+00
  0.00000000E+00  0.00000000E+00  0.00000000E+00
  0.00000000E+00  0.00000000E+00  0.00000000E+00
  0.00000000E+00  0.00000000E+00  0.00000000E+00
  0.00000000E+00  0.00000000E+00  0.00000000E+00
  0.00000000E+00  0.00000000E+00  0.00000000E+00
  0.00000000E+00  0.00000000E+00  0.00000000E+00
  0.00000000E+00  0.00000000E+00  0.00000000E+00
  0.00000000E+00  0.00000000E+00  0.00000000E+00
  0.00000000E+00  0.00000000E+00  0.00000000E+00
  0.00000000E+00  0.00000000E+00  0.00000000E+00
  0.00000000E+00  0.00000000E+00  0.00000000E+00
  0.00000000E+00  0.00000000E+00  0.00000000E+00
  0.00000000E+00  0.00000000E+00  0.00000000E+00
  0.00000000E+00  0.00000000E+00  0.00000000E+00
  0.00000000E+00  0.00000000E+00  0.00000000E+00
  0.00000000E+00  0.00000000E+00  0.00000000E+00
  0.00000000E+00  0.00000000E+00  0.00000000E+00
  0.00000000E+00  0.00000000E+00  0.00000000E+00
  0.00000000E+00  0.00000000E+00  0.00000000E+00
  0.00000000E+00  0.00000000E+00  0.00000000E+00
  0.00000000E+00  0.00000000E+00  0.00000000E+00
  0.00000000E+00  0.00000000E+00  0.00000000E+00
  0.00000000E+00  0.00000000E+00  0.00000000E+00
  0.00000000E+00  0.00000000E+00  0.00000000E+00
  0.00000000E+00  0.00000000E+00  0.00000000E+00
  0.00000000E+00  0.00000000E+00  0.00000000E+00
  0.00000000E+00  0.00000000E+00  0.00000000E+00
  0.00000000E+00  0.00000000E+00  0.00000000E+00
  0.00000000E+00  0.00000000E+00  0.00000000E+00
  0.00000000E+00  0.00000000E+00  0.00000000E+00
  0.00000000E+00  0.00000000E+00  0.00000000E+00
  0.00000000E+00  0.00000000E+00  0.00000000E+00
  0.00000000E+00  0.00000000E+00  0.00000000E+00
  0.00000000E+00  0.00000000E+00  0.00000000E+00
  0.00000000E+00  0.00000000E+00  0.00000000E+00
  0.00000000E+00  0.00000000E+00  0.00000000E+00
  0.00000000E+00  0.00000000E+00  0.00000000E+00
  0.00000000E+00  0.00000000E+00  0.00000000E+00
  0.00000000E+00  0.00000000E+00  0.00000000E+00
  0.00000000E+00  0.00000000E+00  0.00000000E+00
  0.00000000E+00  0.00000000E+00  0.00000000E+00
  0.00000000E+00  0.00000000E+00  0.00000000E+00
  0.00000000E+00  0.00000000E+00  0.00000000E+00
  0.00000000E+00  0.00000000E+00  0.00000000E+00
