Au Pd                                   
   1.00000000000000     
    11.0025815152626798    0.0000000000000000    0.0000000000000000
     5.5012907576313399    9.5285150994265617    0.0000000000000000
     0.0000000000000000    0.0000000000000000   24.4917850942952882
   Au   Pd
    24    24
Direct
  0.2486977267797666  0.7519239798418063  0.6048748920215528
  0.4190734874472543  0.6656999181096572  0.5011421890201958
  0.4986534860313442  0.0037145381180911  0.6050293082997772
  0.5826467289517911  0.0822875463885050  0.3962647557662300
  0.6668402818790851  0.9165790774594935  0.5009952066233375
  0.5819339498171962  0.8320939412557701  0.3960540464258624
  0.3294074512584991  0.8345598144799142  0.3971881633510171
  0.4161137355721929  0.9169289997292523  0.5012423284124874
  0.1653997985795339  0.6683337288392239  0.5007000288190018
  0.3342800557403330  0.5824030653094352  0.3931130034170727
  0.5030459224136362  0.7488509631752559  0.6053056055548592
  0.8351407808554577  0.0798622433183535  0.3995266941257765
  0.3334527139805880  0.3314417567673472  0.3971540540982714
  0.4165453606472829  0.4162165704204580  0.5000155890126585
  0.6676173945869264  0.1672270222762796  0.5011430063924354
  0.7534567704095098 -0.0007167793058790  0.6053495165404165
  0.8303878641877512  0.3324677161820465  0.3996874513399426
  0.7514099296298425  0.2530607545992966  0.6026717685694413
  0.0013818499295031  0.4995704581677066  0.6009145756897735
  0.9167218936618113  0.6655032906667211  0.5007716643230267
  0.0815503397112854  0.5849859456650366  0.3954072741039232
  0.8307445667866437  0.5835178559531115  0.3978019434321683
  0.0833171218354388  0.3299699393963359  0.3977156447757418
  0.1655791857111144  0.1679231253936710  0.5004263658641425
  0.6705361688210684  0.4156037149278929  0.5009939428219022
  0.6676399949699359  0.6653220872697259  0.4998671829109704
  0.5003482232482562  0.5001367669643049  0.5980936321686358
  0.7512892195255425  0.5008332242233928  0.5960999643900680
  0.8329752884183582  0.8329682078137368  0.4032971391041907
  0.5816459081919443  0.5828968333423736  0.4037711578046376
  0.0831522192005917  0.0812439869902955  0.4045608387130109
  0.5826674329563224  0.3330058785933882  0.4027848672344890
  0.9171620537436829  0.1661954478716911  0.5005808640107960
  0.0013691092741075  0.0007974217533964  0.5975799099157153
  0.9151521022665975  0.4162652767269636  0.4993314877610863
  0.0019623027201257  0.2498805721993368  0.5964588606646308
  0.0827910504799027  0.8324466474770914  0.4042441878528528
  0.9170413754554217  0.9189130008488727  0.5016157972821209
  0.4983696676049925  0.2523757274045598  0.5981110002132487
  0.0008723365874933  0.7505527575377976  0.5985294837239561
  0.2482524603114017  0.0031200830312008  0.5987648243099456
  0.1658209233236020  0.4158906766066266  0.4988769390748917
  0.2508072344909211  0.2513504560633245  0.5965314535133864
  0.2517913553407076  0.4990414562488922  0.5969151560694393
  0.1650299571874621  0.9174273626753581  0.5016047310593459
  0.4163550516526958  0.1673502049734595  0.4997649782675753
  0.3329241638940996  0.0818402874143628  0.4025615117937990
  0.7506460039309802  0.7501364488350658  0.5985650133601927
 
  0.00000000E+00  0.00000000E+00  0.00000000E+00
  0.00000000E+00  0.00000000E+00  0.00000000E+00
  0.00000000E+00  0.00000000E+00  0.00000000E+00
  0.00000000E+00  0.00000000E+00  0.00000000E+00
  0.00000000E+00  0.00000000E+00  0.00000000E+00
  0.00000000E+00  0.00000000E+00  0.00000000E+00
  0.00000000E+00  0.00000000E+00  0.00000000E+00
  0.00000000E+00  0.00000000E+00  0.00000000E+00
  0.00000000E+00  0.00000000E+00  0.00000000E+00
  0.00000000E+00  0.00000000E+00  0.00000000E+00
  0.00000000E+00  0.00000000E+00  0.00000000E+00
  0.00000000E+00  0.00000000E+00  0.00000000E+00
  0.00000000E+00  0.00000000E+00  0.00000000E+00
  0.00000000E+00  0.00000000E+00  0.00000000E+00
  0.00000000E+00  0.00000000E+00  0.00000000E+00
  0.00000000E+00  0.00000000E+00  0.00000000E+00
  0.00000000E+00  0.00000000E+00  0.00000000E+00
  0.00000000E+00  0.00000000E+00  0.00000000E+00
  0.00000000E+00  0.00000000E+00  0.00000000E+00
  0.00000000E+00  0.00000000E+00  0.00000000E+00
  0.00000000E+00  0.00000000E+00  0.00000000E+00
  0.00000000E+00  0.00000000E+00  0.00000000E+00
  0.00000000E+00  0.00000000E+00  0.00000000E+00
  0.00000000E+00  0.00000000E+00  0.00000000E+00
  0.00000000E+00  0.00000000E+00  0.00000000E+00
  0.00000000E+00  0.00000000E+00  0.00000000E+00
  0.00000000E+00  0.00000000E+00  0.00000000E+00
  0.00000000E+00  0.00000000E+00  0.00000000E+00
  0.00000000E+00  0.00000000E+00  0.00000000E+00
  0.00000000E+00  0.00000000E+00  0.00000000E+00
  0.00000000E+00  0.00000000E+00  0.00000000E+00
  0.00000000E+00  0.00000000E+00  0.00000000E+00
  0.00000000E+00  0.00000000E+00  0.00000000E+00
  0.00000000E+00  0.00000000E+00  0.00000000E+00
  0.00000000E+00  0.00000000E+00  0.00000000E+00
  0.00000000E+00  0.00000000E+00  0.00000000E+00
  0.00000000E+00  0.00000000E+00  0.00000000E+00
  0.00000000E+00  0.00000000E+00  0.00000000E+00
  0.00000000E+00  0.00000000E+00  0.00000000E+00
  0.00000000E+00  0.00000000E+00  0.00000000E+00
  0.00000000E+00  0.00000000E+00  0.00000000E+00
  0.00000000E+00  0.00000000E+00  0.00000000E+00
  0.00000000E+00  0.00000000E+00  0.00000000E+00
  0.00000000E+00  0.00000000E+00  0.00000000E+00
  0.00000000E+00  0.00000000E+00  0.00000000E+00
  0.00000000E+00  0.00000000E+00  0.00000000E+00
  0.00000000E+00  0.00000000E+00  0.00000000E+00
  0.00000000E+00  0.00000000E+00  0.00000000E+00
