Au Pd                                   
   1.00000000000000     
    11.0025815152626798    0.0000000000000000    0.0000000000000000
     5.5012907576313399    9.5285150994265617    0.0000000000000000
     0.0000000000000000    0.0000000000000000   24.4917850942952882
   Au   Pd
    24    24
Selective dynamics
Direct
  0.7493416418019757  0.7503804919617166  0.6120015448059785   T   T   T
  0.0016890021713003  0.7520459295617972  0.6088209301776007   T   T   T
  0.7500263749367634  0.2491295301122293  0.6095855372293730   T   T   T
 -0.0006989559697570  0.5012126578578409  0.6113745507182249   T   T   T
  0.6669906231128414  0.6659741110132292  0.5072965329258163   T   T   T
  0.0833333333333357  0.5833333333333357  0.4083001692812189   F   F   F
 -0.0005141365777870  0.2500170882781136  0.6079842428214705   T   T   T
  0.0833333333333357  0.3333333333333357  0.4083001692812189   F   F   F
  0.8333333333333357  0.8333333333333357  0.4083001692812189   F   F   F
  0.8333333333333357  0.3333333333333357  0.4083001692812189   F   F   F
  0.3333333333333357  0.3333333333333357  0.4083001692812189   F   F   F
  0.2508870129720887 -0.0037213043405182  0.6094404675197432   T   T   T
  0.5833333333333357  0.5833333333333357  0.4083001692812189   F   F   F
  0.1645266353716394  0.4168978044270726  0.5107748159203251   T   T   T
  0.2525898711680812  0.2497582228181718  0.6110111242236158   T   T   T
  0.3333333333333357  0.5833333333333357  0.4083001692812189   F   F   F
  0.6666750217029238  0.1668657249481855  0.5073473619409916   T   T   T
  0.8333333333333357  0.0833333333333357  0.4083001692812189   F   F   F
  0.3333333333333357  0.8333333333333357  0.4083001692812189   F   F   F
  0.1648437907046887  0.9171850514419120  0.5065793293945513   T   T   T
  0.6648124760356094  0.9172884603978997  0.5072050585105954   T   T   T
  0.5012064224161862  0.0000606376198480  0.6101832240783114   T   T   T
  0.4166884117290492  0.4179411772626149  0.5093073034439869   T   T   T
  0.4990597084916103  0.5023261160521888  0.6108726650904055   T   T   T
  0.1646656881218528  0.6679811787338226  0.5083244880425049   T   T   T
  0.1667432901698626  0.1657255806261458  0.5074116573797944   T   T   T
  0.3333333333333357  0.0833333333333357  0.4083001692812189   F   F   F
  0.9173682650797829  0.9150177755608867  0.5076155815332238   T   T   T
  0.9172811475405677  0.1679540534793386  0.5076758741973856   T   T   T
  0.9166464271203755  0.6665117726579305  0.5088924773571135   T   T   T
  0.9160647070823659  0.4160605474977861  0.5079746018823305   T   T   T
 -0.0000268147558582 -0.0002676852190007  0.6035764289568247   T   T   T
  0.2510421487783288  0.5012031300337543  0.6065102796559094   T   T   T
  0.0833333333333357  0.8333333333333357  0.4083001692812189   F   F   F
  0.5833333333333357  0.0833333333333357  0.4083001692812189   F   F   F
  0.8333333333333357  0.5833333333333357  0.4083001692812189   F   F   F
  0.5833333333333357  0.3333333333333357  0.4083001692812189   F   F   F
  0.5006363757936199  0.2495617727927409  0.6053096666555483   T   T   T
  0.0833333333333357  0.0833333333333357  0.4083001692812189   F   F   F
  0.5833333333333357  0.8333333333333357  0.4083001692812189   F   F   F
  0.7490801583395981  0.5008380155210571  0.6048318678137364   T   T   T
  0.4144155609094770  0.9186446196323600  0.5070781236664585   T   T   T
  0.5010614641685444  0.7492495433842956  0.6042725657410679   T   T   T
  0.6672249461391419  0.4164230713147256  0.5086803475860113   T   T   T
  0.7509677190930549  0.0005655021503491  0.6050201630442745   T   T   T
  0.4160731916585050  0.6673867973651431  0.5089474566133974   T   T   T
  0.4136998272755786  0.1650746280179706  0.5072616212288389   T   T   T
  0.2508524343557081  0.7496705350667542  0.6042379836289220   T   T   T
 
  0.00000000E+00  0.00000000E+00  0.00000000E+00
  0.00000000E+00  0.00000000E+00  0.00000000E+00
  0.00000000E+00  0.00000000E+00  0.00000000E+00
  0.00000000E+00  0.00000000E+00  0.00000000E+00
  0.00000000E+00  0.00000000E+00  0.00000000E+00
  0.00000000E+00  0.00000000E+00  0.00000000E+00
  0.00000000E+00  0.00000000E+00  0.00000000E+00
  0.00000000E+00  0.00000000E+00  0.00000000E+00
  0.00000000E+00  0.00000000E+00  0.00000000E+00
  0.00000000E+00  0.00000000E+00  0.00000000E+00
  0.00000000E+00  0.00000000E+00  0.00000000E+00
  0.00000000E+00  0.00000000E+00  0.00000000E+00
  0.00000000E+00  0.00000000E+00  0.00000000E+00
  0.00000000E+00  0.00000000E+00  0.00000000E+00
  0.00000000E+00  0.00000000E+00  0.00000000E+00
  0.00000000E+00  0.00000000E+00  0.00000000E+00
  0.00000000E+00  0.00000000E+00  0.00000000E+00
  0.00000000E+00  0.00000000E+00  0.00000000E+00
  0.00000000E+00  0.00000000E+00  0.00000000E+00
  0.00000000E+00  0.00000000E+00  0.00000000E+00
  0.00000000E+00  0.00000000E+00  0.00000000E+00
  0.00000000E+00  0.00000000E+00  0.00000000E+00
  0.00000000E+00  0.00000000E+00  0.00000000E+00
  0.00000000E+00  0.00000000E+00  0.00000000E+00
  0.00000000E+00  0.00000000E+00  0.00000000E+00
  0.00000000E+00  0.00000000E+00  0.00000000E+00
  0.00000000E+00  0.00000000E+00  0.00000000E+00
  0.00000000E+00  0.00000000E+00  0.00000000E+00
  0.00000000E+00  0.00000000E+00  0.00000000E+00
  0.00000000E+00  0.00000000E+00  0.00000000E+00
  0.00000000E+00  0.00000000E+00  0.00000000E+00
  0.00000000E+00  0.00000000E+00  0.00000000E+00
  0.00000000E+00  0.00000000E+00  0.00000000E+00
  0.00000000E+00  0.00000000E+00  0.00000000E+00
  0.00000000E+00  0.00000000E+00  0.00000000E+00
  0.00000000E+00  0.00000000E+00  0.00000000E+00
  0.00000000E+00  0.00000000E+00  0.00000000E+00
  0.00000000E+00  0.00000000E+00  0.00000000E+00
  0.00000000E+00  0.00000000E+00  0.00000000E+00
  0.00000000E+00  0.00000000E+00  0.00000000E+00
  0.00000000E+00  0.00000000E+00  0.00000000E+00
  0.00000000E+00  0.00000000E+00  0.00000000E+00
  0.00000000E+00  0.00000000E+00  0.00000000E+00
  0.00000000E+00  0.00000000E+00  0.00000000E+00
  0.00000000E+00  0.00000000E+00  0.00000000E+00
  0.00000000E+00  0.00000000E+00  0.00000000E+00
  0.00000000E+00  0.00000000E+00  0.00000000E+00
  0.00000000E+00  0.00000000E+00  0.00000000E+00
