Au Pd                                   
   1.00000000000000     
    11.0025815152626798    0.0000000000000000    0.0000000000000000
     5.5012907576313399    9.5285150994265617    0.0000000000000000
     0.0000000000000000    0.0000000000000000   24.4917850942952882
   Au   Pd
    24    24
Direct
  0.0793469613433494  0.0834079631034270  0.3984055583561074
  0.1664055630807665  0.6667693699947360  0.4989855643428417
  0.2497869421452170  0.5021936082564141  0.6035979744450072
  0.5845471721103894  0.0835918151369055  0.3939577822007834
  0.4160440424939974  0.1654841315565375  0.4991883828663799
  0.4156018748740721  0.4181782928371523  0.5002295675174250
  0.5010135319096248  0.2504477369881764  0.6094773113196522
  0.3332097616407855  0.5852312574031500  0.3938177044084375
  0.5829647464081545  0.8300478090236316  0.3947513612097167
  0.7507867874198588 -0.0013250342560990  0.6037695652727256
  0.6679233294466380  0.4176038925449043  0.5011440520694879
  0.7519035923518163  0.2508392922742573  0.6069420000520173
  0.6655007246329037  0.6688489213065730  0.4983544940110560
  0.7516929470550906  0.5002567772776176  0.6048986579376597
  0.8359183176511904  0.8298530047677556  0.3975804929334718
  0.6670702998281225  0.1660018640795560  0.5009774002347415
  0.2497097839053436  0.2508086455288190  0.6049564715242201
  0.7506831148080259  0.7503186621914354  0.6002797667358608
  0.3303420562598881  0.3352339527934208  0.3970258948811503
  0.2540349174423845 -0.0026370543897892  0.5999067327539447
  0.1642959403865967  0.1684883555807017  0.4999959038510834
  0.0041053869863878 -0.0021124708509003  0.6021185874552563
  0.3301359254891744  0.0829410424694957  0.3939071470962262
  0.9169871189739831  0.9164356606014568  0.4999041034036076
  0.9176341985726086  0.1671265571870679  0.5014463565244692
  0.0799371783742140  0.3355100138463832  0.4046169491952434
  0.8350373075934403  0.5793640230844350  0.4031783828620601
  0.9161033955102819  0.4184663594474521  0.5016125804496927
  0.0010389841516411  0.2509747892000079  0.5979935799904514
  0.8309855354338258  0.3347996084405263  0.4047830223042659
  0.0824891591856947  0.5817887716992238  0.4035474550659576
  0.9160555163049644  0.6655118057841845  0.4999847035794538
  0.8325255472393028  0.0844098678582525  0.4035970922213428
  0.5000517730494453  0.7490741126955790  0.5941657633322417
  0.5002354515632326  0.5020602453114069  0.5974351363973832
  0.0008131392597182  0.5003114780197401  0.5976644295332363
  0.1639408946787153  0.4180034325554511  0.5016916110212506
  0.4144628864303155  0.6693145042658362  0.4971814998972169
  0.5835683728981489  0.5817016449356656  0.4015999694111346
  0.0828372820478995  0.8331184131232006  0.4019761745424695
  0.5842956649429970  0.3331335283304233  0.4027592180566792
  0.5011500904610972 -0.0006987551051359  0.5942025618837180
  0.0014178285387113  0.7486919085416056  0.5969141263871470
  0.6662258230190665  0.9160597269755444  0.4973246823975733
  0.1679701509194983  0.9173056604483146  0.4990712544637351
  0.3325248519005510  0.8323683334965032  0.4011688422174449
  0.4154557610364032  0.9166484572771327  0.4969329355160728
  0.2532323682444657  0.7480480163618649  0.5949791958709008
 
  0.00000000E+00  0.00000000E+00  0.00000000E+00
  0.00000000E+00  0.00000000E+00  0.00000000E+00
  0.00000000E+00  0.00000000E+00  0.00000000E+00
  0.00000000E+00  0.00000000E+00  0.00000000E+00
  0.00000000E+00  0.00000000E+00  0.00000000E+00
  0.00000000E+00  0.00000000E+00  0.00000000E+00
  0.00000000E+00  0.00000000E+00  0.00000000E+00
  0.00000000E+00  0.00000000E+00  0.00000000E+00
  0.00000000E+00  0.00000000E+00  0.00000000E+00
  0.00000000E+00  0.00000000E+00  0.00000000E+00
  0.00000000E+00  0.00000000E+00  0.00000000E+00
  0.00000000E+00  0.00000000E+00  0.00000000E+00
  0.00000000E+00  0.00000000E+00  0.00000000E+00
  0.00000000E+00  0.00000000E+00  0.00000000E+00
  0.00000000E+00  0.00000000E+00  0.00000000E+00
  0.00000000E+00  0.00000000E+00  0.00000000E+00
  0.00000000E+00  0.00000000E+00  0.00000000E+00
  0.00000000E+00  0.00000000E+00  0.00000000E+00
  0.00000000E+00  0.00000000E+00  0.00000000E+00
  0.00000000E+00  0.00000000E+00  0.00000000E+00
  0.00000000E+00  0.00000000E+00  0.00000000E+00
  0.00000000E+00  0.00000000E+00  0.00000000E+00
  0.00000000E+00  0.00000000E+00  0.00000000E+00
  0.00000000E+00  0.00000000E+00  0.00000000E+00
  0.00000000E+00  0.00000000E+00  0.00000000E+00
  0.00000000E+00  0.00000000E+00  0.00000000E+00
  0.00000000E+00  0.00000000E+00  0.00000000E+00
  0.00000000E+00  0.00000000E+00  0.00000000E+00
  0.00000000E+00  0.00000000E+00  0.00000000E+00
  0.00000000E+00  0.00000000E+00  0.00000000E+00
  0.00000000E+00  0.00000000E+00  0.00000000E+00
  0.00000000E+00  0.00000000E+00  0.00000000E+00
  0.00000000E+00  0.00000000E+00  0.00000000E+00
  0.00000000E+00  0.00000000E+00  0.00000000E+00
  0.00000000E+00  0.00000000E+00  0.00000000E+00
  0.00000000E+00  0.00000000E+00  0.00000000E+00
  0.00000000E+00  0.00000000E+00  0.00000000E+00
  0.00000000E+00  0.00000000E+00  0.00000000E+00
  0.00000000E+00  0.00000000E+00  0.00000000E+00
  0.00000000E+00  0.00000000E+00  0.00000000E+00
  0.00000000E+00  0.00000000E+00  0.00000000E+00
  0.00000000E+00  0.00000000E+00  0.00000000E+00
  0.00000000E+00  0.00000000E+00  0.00000000E+00
  0.00000000E+00  0.00000000E+00  0.00000000E+00
  0.00000000E+00  0.00000000E+00  0.00000000E+00
  0.00000000E+00  0.00000000E+00  0.00000000E+00
  0.00000000E+00  0.00000000E+00  0.00000000E+00
  0.00000000E+00  0.00000000E+00  0.00000000E+00
