Au  O Pd                                
   1.00000000000000     
    11.0025815152626798    0.0000000000000000    0.0000000000000000
     5.5012907576313399    9.5285150994265617    0.0000000000000000
     0.0000000000000000    0.0000000000000000   26.1917850942952910
   Au   O    Pd
    24     8    24
Selective dynamics
Direct
  0.0833333333333357  0.0833333333333357  0.3817991009012260   F   F   F
  0.2417799853629343  0.7408125306814785  0.5623288612636075   T   T   T
  0.9125410352157093  0.1707100765664188  0.4791823935695395   T   T   T
  0.8333333333333357  0.8333333333333357  0.3817991009012260   F   F   F
  0.6720615150974529  0.6683948152272825  0.4774379102891009   T   T   T
  0.0833333333333357  0.3333333333333357  0.3817991009012260   F   F   F
  0.8333333333333357  0.5833333333333357  0.3817991009012260   F   F   F
 -0.0224326549853609  0.2494404581408890  0.6011553288606716   T   T   T
  0.7362627498273775  0.0175793877565654  0.5629736192666764   T   T   T
  0.8333333333333357  0.0833333333333357  0.3817991009012260   F   F   F
  0.4163273356497395  0.9140896667520266  0.4742777969150133   T   T   T
  0.9142774645205358  0.9092192421916653  0.4765484555468253   T   T   T
  0.5833333333333357  0.5833333333333357  0.3817991009012260   F   F   F
  0.5118973331995254  0.2618650252211958  0.6192492587663450   T   T   T
  0.4203212383221764  0.4150507056848683  0.4752833184927056   T   T   T
  0.3333333333333357  0.0833333333333357  0.3817991009012260   F   F   F
  0.1601302798285907  0.1698681739527939  0.4773247844284188   T   T   T
  0.4197434839417882  0.1670973823317606  0.4781216840838851   T   T   T
  0.5833333333333357  0.0833333333333357  0.3817991009012260   F   F   F
  0.1562414993403731  0.4247415755734815  0.4749112915659554   T   T   T
  0.2464727570776111  0.2530887088814656  0.5640464837742176   T   T   T
  0.7662554871870935  0.7255468219678959  0.6083703830292464   T   T   T
  0.3333333333333357  0.5833333333333357  0.3817991009012260   F   F   F
  0.1575456848893443  0.6677177980728211  0.4739488718673538   T   T   T
  0.1186977372744685  0.2910402737006434  0.6339946319688377   T   T   T
  0.1530505172573709  0.5531405691438375  0.6281796801546691   T   T   T
  0.0763503944220232  0.8664674492595074  0.6207285422362481   T   T   T
  0.7995779950375500  0.8931717078440095  0.6304292050388323   T   T   T
  0.3273900442295352  0.8438715587488278  0.6075306150944552   T   T   T
  0.6082680428973940  0.3737514978118766  0.6205325708076652   T   T   T
  0.4226709473502460  0.1482541877153176  0.6244524698376519   T   T   T
  0.5539655422459298  0.8476170432389437  0.6158534704068689   T   T   T
  0.4930097351900483  0.0045323506610973  0.5666078796695380   T   T   T
  0.2355766489778100  0.0088623437843733  0.5630941987829551   T   T   T
  0.1622600016796110  0.9173399461041705  0.4718422829528480   T   T   T
  0.5833333333333357  0.3333333333333357  0.3817991009012260   F   F   F
 -0.0070683752211077  0.7422473490154309  0.6218926693643919   T   T   T
  0.0833333333333357  0.8333333333333357  0.3817991009012260   F   F   F
  0.4146274891434385  0.6673759235388579  0.4761103530691848   T   T   T
  0.5060032789145867  0.5020679818071012  0.5624283884294676   T   T   T
  0.0120140662814955  0.4917845345721747  0.6114378252343782   T   T   T
  0.3333333333333357  0.8333333333333357  0.3817991009012260   F   F   F
  0.5833333333333357  0.8333333333333357  0.3817991009012260   F   F   F
  0.5067436134447941  0.7384433766199604  0.5678398556544038   T   T   T
  0.9171792420313564  0.6610729604480564  0.5154980424932099   T   T   T
  0.0833333333333357  0.5833333333333357  0.3817991009012260   F   F   F
  0.6676500352524628  0.1670300415422725  0.4756051721509210   T   T   T
  0.8333333333333357  0.3333333333333357  0.3817991009012260   F   F   F
  0.6677996094382939  0.4191741398337239  0.4724950698200757   T   T   T
  0.7517358763303088  0.2614067946224636  0.5654355652673121   T   T   T
  0.9143438301379245  0.4218822722573721  0.4739456850305949   T   T   T
  0.7734121769341404  0.5053922574956381  0.5635433261504071   T   T   T
 -0.0108238722738714  0.0082673108109085  0.5661551440390548   T   T   T
  0.6693351340063644  0.9114879368690625  0.4756505534429878   T   T   T
  0.2640617737757128  0.4888846796472345  0.5642139301598960   T   T   T
  0.3333333333333357  0.3333333333333357  0.3817991009012260   F   F   F
 
  0.00000000E+00  0.00000000E+00  0.00000000E+00
  0.00000000E+00  0.00000000E+00  0.00000000E+00
  0.00000000E+00  0.00000000E+00  0.00000000E+00
  0.00000000E+00  0.00000000E+00  0.00000000E+00
  0.00000000E+00  0.00000000E+00  0.00000000E+00
  0.00000000E+00  0.00000000E+00  0.00000000E+00
  0.00000000E+00  0.00000000E+00  0.00000000E+00
  0.00000000E+00  0.00000000E+00  0.00000000E+00
  0.00000000E+00  0.00000000E+00  0.00000000E+00
  0.00000000E+00  0.00000000E+00  0.00000000E+00
  0.00000000E+00  0.00000000E+00  0.00000000E+00
  0.00000000E+00  0.00000000E+00  0.00000000E+00
  0.00000000E+00  0.00000000E+00  0.00000000E+00
  0.00000000E+00  0.00000000E+00  0.00000000E+00
  0.00000000E+00  0.00000000E+00  0.00000000E+00
  0.00000000E+00  0.00000000E+00  0.00000000E+00
  0.00000000E+00  0.00000000E+00  0.00000000E+00
  0.00000000E+00  0.00000000E+00  0.00000000E+00
  0.00000000E+00  0.00000000E+00  0.00000000E+00
  0.00000000E+00  0.00000000E+00  0.00000000E+00
  0.00000000E+00  0.00000000E+00  0.00000000E+00
  0.00000000E+00  0.00000000E+00  0.00000000E+00
  0.00000000E+00  0.00000000E+00  0.00000000E+00
  0.00000000E+00  0.00000000E+00  0.00000000E+00
  0.00000000E+00  0.00000000E+00  0.00000000E+00
  0.00000000E+00  0.00000000E+00  0.00000000E+00
  0.00000000E+00  0.00000000E+00  0.00000000E+00
  0.00000000E+00  0.00000000E+00  0.00000000E+00
  0.00000000E+00  0.00000000E+00  0.00000000E+00
  0.00000000E+00  0.00000000E+00  0.00000000E+00
  0.00000000E+00  0.00000000E+00  0.00000000E+00
  0.00000000E+00  0.00000000E+00  0.00000000E+00
  0.00000000E+00  0.00000000E+00  0.00000000E+00
  0.00000000E+00  0.00000000E+00  0.00000000E+00
  0.00000000E+00  0.00000000E+00  0.00000000E+00
  0.00000000E+00  0.00000000E+00  0.00000000E+00
  0.00000000E+00  0.00000000E+00  0.00000000E+00
  0.00000000E+00  0.00000000E+00  0.00000000E+00
  0.00000000E+00  0.00000000E+00  0.00000000E+00
  0.00000000E+00  0.00000000E+00  0.00000000E+00
  0.00000000E+00  0.00000000E+00  0.00000000E+00
  0.00000000E+00  0.00000000E+00  0.00000000E+00
  0.00000000E+00  0.00000000E+00  0.00000000E+00
  0.00000000E+00  0.00000000E+00  0.00000000E+00
  0.00000000E+00  0.00000000E+00  0.00000000E+00
  0.00000000E+00  0.00000000E+00  0.00000000E+00
  0.00000000E+00  0.00000000E+00  0.00000000E+00
  0.00000000E+00  0.00000000E+00  0.00000000E+00
  0.00000000E+00  0.00000000E+00  0.00000000E+00
  0.00000000E+00  0.00000000E+00  0.00000000E+00
  0.00000000E+00  0.00000000E+00  0.00000000E+00
  0.00000000E+00  0.00000000E+00  0.00000000E+00
  0.00000000E+00  0.00000000E+00  0.00000000E+00
  0.00000000E+00  0.00000000E+00  0.00000000E+00
  0.00000000E+00  0.00000000E+00  0.00000000E+00
  0.00000000E+00  0.00000000E+00  0.00000000E+00
