Au Pd                                   
   1.00000000000000     
    11.0025815152626798    0.0000000000000000    0.0000000000000000
     5.5012907576313399    9.5285150994265617    0.0000000000000000
     0.0000000000000000    0.0000000000000000   24.4917850942952882
   Au   Pd
    24    24
Direct
  0.0836698614555975  0.0842155245455446  0.3909374404480951
  0.3366957964519108  0.8316679204486604  0.3928285570806488
  0.1639915354201211  0.9161675715201583  0.4972488516308230
  0.4170525743537778  0.1665082689218451  0.5030719169126160
  0.5014066312888101 -0.0005055524565651  0.6082856628849126
  0.4152581733453204  0.4180518418817438  0.5023193456112317
  0.5049081448808073  0.2480733519990692  0.6095148313788864
  0.2494282642900917  0.5011919302290764  0.6036758142304732
  0.4178024053723231  0.6655110044519477  0.5007216922013115
  0.4189510617305200  0.9151464944533123  0.5014076081855007
  0.5007629306467559  0.7488839799561630  0.6061855965278967
  0.8284048406874913  0.0857148237793060  0.3941973579756918
  0.6692357012882851  0.1650927091956833  0.5005952503200398
  0.8281790182909191  0.3373391105754631  0.3952155332911341
  0.8285525155860136  0.8341606098122636  0.3995603063333593
  0.5048675544455534  0.4981040783311324  0.6070248955774037
  0.2476899684643174  0.2496747007288999  0.6056564717308255
  0.7530064581487862  0.7480388999320459  0.6020795449253039
  0.1645509211912565  0.1681412099631122  0.4985475604902134
  0.0010016811448204  0.7523912669816742  0.5982831854820694
  0.0840140227562591  0.8316901927222892  0.3946227725469228
  0.0842524233556981  0.3342721842841603  0.3942687200675717
  0.9141330219349116  0.4189953479549564  0.4983784697864669
  0.0837662934631482  0.5821848492622865  0.3989380255194304
  0.3348075170603361  0.5815746376386339  0.4034632596908517
  0.9150189065387333  0.1668022192040501  0.4953788708120526
  0.7538567029749377  0.4962070248833204  0.5969936002494786
  0.6675330222968680  0.6671134831111184  0.5023830099627491
  0.8287948173577584  0.5857314281094772  0.4035025618666755
  0.7541152169807317  0.2479459933856601  0.5956997042094843
  0.6676167306170609  0.4168205095714116  0.5004967400505081
  0.0010797677175260  0.0018444479593548  0.5930373155624300
  0.7526560825178515  0.0005481417719194  0.5969372204000732
 -0.0005624583369922  0.2493749198787634  0.5941524077284890
  0.9157544263800783  0.6686900638776777  0.4996454993349707
  0.1645472878662930  0.4188839516246316  0.5001720342024640
  0.0009428609359194  0.4979193508448713  0.5953755430506347
  0.5822366091651946  0.5842912519190615  0.4046689796532701
  0.9162638115523598  0.9159185522234079  0.4973141737491856
  0.5798324815150150  0.3355351896756769  0.4043037686308121
  0.3345988837837701  0.0832765155965483  0.4029760069034491
  0.5798686010740903  0.0843867504575136  0.4051764829645990
  0.6693065765360264  0.9137720684143575  0.5021791828104871
  0.2487667690215239 -0.0003160969918649  0.5969410798167021
  0.3342073968267721  0.3325778583931108  0.4050055888202911
  0.1635738618528901  0.6665691110304925  0.4989499383467629
  0.5825882530125257  0.8329863140229177  0.4054795974002011
  0.2510140747592327  0.7508339939236593  0.5962020226445518
 
  0.00000000E+00  0.00000000E+00  0.00000000E+00
  0.00000000E+00  0.00000000E+00  0.00000000E+00
  0.00000000E+00  0.00000000E+00  0.00000000E+00
  0.00000000E+00  0.00000000E+00  0.00000000E+00
  0.00000000E+00  0.00000000E+00  0.00000000E+00
  0.00000000E+00  0.00000000E+00  0.00000000E+00
  0.00000000E+00  0.00000000E+00  0.00000000E+00
  0.00000000E+00  0.00000000E+00  0.00000000E+00
  0.00000000E+00  0.00000000E+00  0.00000000E+00
  0.00000000E+00  0.00000000E+00  0.00000000E+00
  0.00000000E+00  0.00000000E+00  0.00000000E+00
  0.00000000E+00  0.00000000E+00  0.00000000E+00
  0.00000000E+00  0.00000000E+00  0.00000000E+00
  0.00000000E+00  0.00000000E+00  0.00000000E+00
  0.00000000E+00  0.00000000E+00  0.00000000E+00
  0.00000000E+00  0.00000000E+00  0.00000000E+00
  0.00000000E+00  0.00000000E+00  0.00000000E+00
  0.00000000E+00  0.00000000E+00  0.00000000E+00
  0.00000000E+00  0.00000000E+00  0.00000000E+00
  0.00000000E+00  0.00000000E+00  0.00000000E+00
  0.00000000E+00  0.00000000E+00  0.00000000E+00
  0.00000000E+00  0.00000000E+00  0.00000000E+00
  0.00000000E+00  0.00000000E+00  0.00000000E+00
  0.00000000E+00  0.00000000E+00  0.00000000E+00
  0.00000000E+00  0.00000000E+00  0.00000000E+00
  0.00000000E+00  0.00000000E+00  0.00000000E+00
  0.00000000E+00  0.00000000E+00  0.00000000E+00
  0.00000000E+00  0.00000000E+00  0.00000000E+00
  0.00000000E+00  0.00000000E+00  0.00000000E+00
  0.00000000E+00  0.00000000E+00  0.00000000E+00
  0.00000000E+00  0.00000000E+00  0.00000000E+00
  0.00000000E+00  0.00000000E+00  0.00000000E+00
  0.00000000E+00  0.00000000E+00  0.00000000E+00
  0.00000000E+00  0.00000000E+00  0.00000000E+00
  0.00000000E+00  0.00000000E+00  0.00000000E+00
  0.00000000E+00  0.00000000E+00  0.00000000E+00
  0.00000000E+00  0.00000000E+00  0.00000000E+00
  0.00000000E+00  0.00000000E+00  0.00000000E+00
  0.00000000E+00  0.00000000E+00  0.00000000E+00
  0.00000000E+00  0.00000000E+00  0.00000000E+00
  0.00000000E+00  0.00000000E+00  0.00000000E+00
  0.00000000E+00  0.00000000E+00  0.00000000E+00
  0.00000000E+00  0.00000000E+00  0.00000000E+00
  0.00000000E+00  0.00000000E+00  0.00000000E+00
  0.00000000E+00  0.00000000E+00  0.00000000E+00
  0.00000000E+00  0.00000000E+00  0.00000000E+00
  0.00000000E+00  0.00000000E+00  0.00000000E+00
  0.00000000E+00  0.00000000E+00  0.00000000E+00
