Au  O Pd                                
   1.00000000000000     
    11.0025815152626798    0.0000000000000000    0.0000000000000000
     5.5012907576313399    9.5285150994265617    0.0000000000000000
     0.0000000000000000    0.0000000000000000   26.1917850942952910
   Au   O    Pd
    24     8    24
Selective dynamics
Direct
  0.5011753387683167  0.2739336907566038  0.5629144778519373   T   T   T
  0.6632893818884685  0.4199578246120179  0.5126331449338052   T   T   T
  0.3981771409288138  0.6790893657321577  0.5210866764386807   T   T   T
  0.0033844865179530  0.0026557560181864  0.5536521496623994   T   T   T
  0.0833333333333357  0.3333333333333357  0.3817991009012260   F   F   F
  0.9028357953704798  0.4221875208464768  0.4760858217335222   T   T   T
  0.4898682349811492  0.4923551208413852  0.6237081432921964   T   T   T
  0.4172386595805320  0.9098922372604388  0.4779843729391101   T   T   T
  0.7378930109491435  0.7412058441096646  0.5586810907582420   T   T   T
  0.8333333333333357  0.5833333333333357  0.3817991009012260   F   F   F
  0.4874877407566178  0.7322043040691725  0.6207054093221487   T   T   T
  0.8333333333333357  0.0833333333333357  0.3817991009012260   F   F   F
  0.7293512220811854  0.2622150789881337  0.6112079570737227   T   T   T
 -0.0024783250142505  0.7464311551644117  0.5609501289283535   T   T   T
  0.3333333333333357  0.8333333333333357  0.3817991009012260   F   F   F
  0.3333333333333357  0.0833333333333357  0.3817991009012260   F   F   F
  0.1633849131920816  0.1660566210751905  0.4778373338609233   T   T   T
  0.5833333333333357  0.5833333333333357  0.3817991009012260   F   F   F
  0.3333333333333357  0.3333333333333357  0.3817991009012260   F   F   F
  0.1673188537089673  0.4224589303903309  0.4765318030170536   T   T   T
  0.2521512918601226  0.2542118776348272  0.5686229485862432   T   T   T
  0.6633494089624828  0.1730704583880822  0.4714785675475681   T   T   T
  0.3333333333333357  0.5833333333333357  0.3817991009012260   F   F   F
  0.1687185474215662  0.6727488344234461  0.4719407274730842   T   T   T
  0.8922112693111397  0.3028079982367836  0.6282908313014540   T   T   T
  0.8510348437450783  0.0484246027604766  0.6108757595967199   T   T   T
  0.8609708210960035  0.5785791311903618  0.6183095491612656   T   T   T
  0.0327167381384517  0.7925099786492784  0.6320503957563396   T   T   T
  0.1980584782789564  0.9454628007302925  0.6349161588850941   T   T   T
  0.5755629473736162  0.8534069192837440  0.6186805941327705   T   T   T
  0.5794473479454419  0.0863247450853150  0.6054478691484486   T   T   T
  0.2804760316993524  0.5593434953141394  0.6353481908896491   T   T   T
  0.4831817610428651  0.0043554901825150  0.5652167616754856   T   T   T
  0.4164545879779323  0.1688888171914315  0.4767996959310143   T   T   T
  0.5833333333333357  0.0833333333333357  0.3817991009012260   F   F   F
  0.2234574744552506  0.7602468081512581  0.6317168463331884   T   T   T
  0.1666939288773582  0.9173073336598174  0.4716932770217628   T   T   T
  0.2598577066429342 -0.0314278306314554  0.5678397990194227   T   T   T
  0.9117626206296058  0.9178274322401400  0.4697292995868874   T   T   T
  0.0833333333333357  0.8333333333333357  0.3817991009012260   F   F   F
  0.0012780569042446  0.4927825998438286  0.5643983540884474   T   T   T
  0.9103111689851289  0.6698489638280702  0.4739825453632179   T   T   T
  0.0833333333333357  0.5833333333333357  0.3817991009012260   F   F   F
  0.0075389080753330  0.2464745139215750  0.5654151820081628   T   T   T
  0.9072116770429968  0.1766623906081918  0.4705557319558588   T   T   T
  0.4246893231559093  0.4309276109851085  0.4747458828576741   T   T   T
  0.0833333333333357  0.0833333333333357  0.3817991009012260   F   F   F
  0.7514905761793457 -0.0078240053802606  0.5605002590157666   T   T   T
  0.6612489596362353  0.9165870642849318  0.4726005700978259   T   T   T
  0.8333333333333357  0.8333333333333357  0.3817991009012260   F   F   F
  0.5833333333333357  0.8333333333333357  0.3817991009012260   F   F   F
  0.7347654415363412  0.4991903525769941  0.6159600289900293   T   T   T
  0.6514664509023848  0.6607855678751048  0.4726431567845295   T   T   T
  0.8333333333333357  0.3333333333333357  0.3817991009012260   F   F   F
  0.5833333333333357  0.3333333333333357  0.3817991009012260   F   F   F
  0.2485488920342674  0.5144049389614966  0.5636260505424142   T   T   T
 
  0.00000000E+00  0.00000000E+00  0.00000000E+00
  0.00000000E+00  0.00000000E+00  0.00000000E+00
  0.00000000E+00  0.00000000E+00  0.00000000E+00
  0.00000000E+00  0.00000000E+00  0.00000000E+00
  0.00000000E+00  0.00000000E+00  0.00000000E+00
  0.00000000E+00  0.00000000E+00  0.00000000E+00
  0.00000000E+00  0.00000000E+00  0.00000000E+00
  0.00000000E+00  0.00000000E+00  0.00000000E+00
  0.00000000E+00  0.00000000E+00  0.00000000E+00
  0.00000000E+00  0.00000000E+00  0.00000000E+00
  0.00000000E+00  0.00000000E+00  0.00000000E+00
  0.00000000E+00  0.00000000E+00  0.00000000E+00
  0.00000000E+00  0.00000000E+00  0.00000000E+00
  0.00000000E+00  0.00000000E+00  0.00000000E+00
  0.00000000E+00  0.00000000E+00  0.00000000E+00
  0.00000000E+00  0.00000000E+00  0.00000000E+00
  0.00000000E+00  0.00000000E+00  0.00000000E+00
  0.00000000E+00  0.00000000E+00  0.00000000E+00
  0.00000000E+00  0.00000000E+00  0.00000000E+00
  0.00000000E+00  0.00000000E+00  0.00000000E+00
  0.00000000E+00  0.00000000E+00  0.00000000E+00
  0.00000000E+00  0.00000000E+00  0.00000000E+00
  0.00000000E+00  0.00000000E+00  0.00000000E+00
  0.00000000E+00  0.00000000E+00  0.00000000E+00
  0.00000000E+00  0.00000000E+00  0.00000000E+00
  0.00000000E+00  0.00000000E+00  0.00000000E+00
  0.00000000E+00  0.00000000E+00  0.00000000E+00
  0.00000000E+00  0.00000000E+00  0.00000000E+00
  0.00000000E+00  0.00000000E+00  0.00000000E+00
  0.00000000E+00  0.00000000E+00  0.00000000E+00
  0.00000000E+00  0.00000000E+00  0.00000000E+00
  0.00000000E+00  0.00000000E+00  0.00000000E+00
  0.00000000E+00  0.00000000E+00  0.00000000E+00
  0.00000000E+00  0.00000000E+00  0.00000000E+00
  0.00000000E+00  0.00000000E+00  0.00000000E+00
  0.00000000E+00  0.00000000E+00  0.00000000E+00
  0.00000000E+00  0.00000000E+00  0.00000000E+00
  0.00000000E+00  0.00000000E+00  0.00000000E+00
  0.00000000E+00  0.00000000E+00  0.00000000E+00
  0.00000000E+00  0.00000000E+00  0.00000000E+00
  0.00000000E+00  0.00000000E+00  0.00000000E+00
  0.00000000E+00  0.00000000E+00  0.00000000E+00
  0.00000000E+00  0.00000000E+00  0.00000000E+00
  0.00000000E+00  0.00000000E+00  0.00000000E+00
  0.00000000E+00  0.00000000E+00  0.00000000E+00
  0.00000000E+00  0.00000000E+00  0.00000000E+00
  0.00000000E+00  0.00000000E+00  0.00000000E+00
  0.00000000E+00  0.00000000E+00  0.00000000E+00
  0.00000000E+00  0.00000000E+00  0.00000000E+00
  0.00000000E+00  0.00000000E+00  0.00000000E+00
  0.00000000E+00  0.00000000E+00  0.00000000E+00
  0.00000000E+00  0.00000000E+00  0.00000000E+00
  0.00000000E+00  0.00000000E+00  0.00000000E+00
  0.00000000E+00  0.00000000E+00  0.00000000E+00
  0.00000000E+00  0.00000000E+00  0.00000000E+00
  0.00000000E+00  0.00000000E+00  0.00000000E+00
