Au  O Pd                                
   1.00000000000000     
    11.0025815152626798    0.0000000000000000    0.0000000000000000
     5.5012907576313399    9.5285150994265617    0.0000000000000000
     0.0000000000000000    0.0000000000000000   26.1917850942952910
   Au   O    Pd
    24     8    24
Selective dynamics
Direct
  0.0833333333333357  0.0833333333333357  0.3817991009012260   F   F   F
  0.3333333333333357  0.8333333333333357  0.3817991009012260   F   F   F
  0.0833333333333357  0.8333333333333357  0.3817991009012260   F   F   F
  0.9113375792714955  0.1653463179712387  0.4841171881562227   T   T   T
  0.8333333333333357  0.8333333333333357  0.3817991009012260   F   F   F
  0.8333333333333357  0.5833333333333357  0.3817991009012260   F   F   F
  0.0833333333333357  0.3333333333333357  0.3817991009012260   F   F   F
  0.9109473938274452  0.4194835401396824  0.4786100335328235   T   T   T
  0.8333333333333357  0.3333333333333357  0.3817991009012260   F   F   F
  0.0833333333333357  0.5833333333333357  0.3817991009012260   F   F   F
  0.6612540182280804  0.1696018803112946  0.5105143916699915   T   T   T
  0.9132627686701144  0.9178375030368588  0.4875223329647432   T   T   T
  0.8333333333333357  0.0833333333333357  0.3817991009012260   F   F   F
  0.5833333333333357  0.8333333333333357  0.3817991009012260   F   F   F
  0.3333333333333357  0.0833333333333357  0.3817991009012260   F   F   F
  0.2433491987404058 -0.0042750170098662  0.5657463085028662   T   T   T
  0.4157070380733550  0.6678561745026149  0.4777611873426385   T   T   T
  0.3333333333333357  0.3333333333333357  0.3817991009012260   F   F   F
  0.1671135084188319  0.4149555979259626  0.4785073466307757   T   T   T
  0.5833333333333357  0.5833333333333357  0.3817991009012260   F   F   F
  0.4218549744827760  0.4122110311602007  0.4791499325794512   T   T   T
  0.3333333333333357  0.5833333333333357  0.3817991009012260   F   F   F
  0.5833333333333357  0.3333333333333357  0.3817991009012260   F   F   F
  0.4215329493412354  0.9206270926924490  0.4792193733095224   T   T   T
  0.3025932943305260  0.3633284101143203  0.6226061102862209   T   T   T
  0.1129687421494576  0.8127354429144624  0.6173085155195274   T   T   T
  0.3244154777432515  0.0806986244803885  0.6160040106658529   T   T   T
  0.8403209549671350  0.7916478800972118  0.6191827298826746   T   T   T
  0.8589111151739822  0.3505895809688759  0.6216821075713129   T   T   T
  0.5652116321607400  0.5931470692043688  0.6144112901512880   T   T   T
  0.8620512661463529  0.0805038009705744  0.6372530598652547   T   T   T
  0.5664873936102510  0.0711618231308286  0.6324050400711214   T   T   T
  0.2520094373271532  0.5000388079867015  0.5663447398453646   T   T   T
  0.1644268019236361  0.6665164039268836  0.4779383362900233   T   T   T
  0.1650130075256835  0.1686079407353017  0.4782320742118028   T   T   T
  0.5071291781873677 -0.0028058875152498  0.5735223045216552   T   T   T
  0.4196424566237161  0.1678023999735494  0.4779554974706595   T   T   T
  0.5833333333333357  0.0833333333333357  0.3817991009012260   F   F   F
  0.7508431799381786  0.7546253489638823  0.5614642384341424   T   T   T
  0.2579240219393568  0.7412246071589720  0.5649596744646583   T   T   T
  0.5057988937804242  0.4881616543194947  0.5680935940764591   T   T   T
  0.5009674970999889  0.7543461987807230  0.5659572480426198   T   T   T
  0.0084365111672410  0.7390217175483675  0.5762123898115955   T   T   T
 -0.0041236029377858  0.5055070142479103  0.5643649524681424   T   T   T
  0.7537653050491651  0.0012247367295887  0.6029659681158013   T   T   T
  0.9163097577159207  0.6703550573184276  0.4748367177978220   T   T   T
  0.6667352146732743  0.4152678137316057  0.4782910720919344   T   T   T
  0.7459827099089166  0.2602635076953748  0.6012478676519499   T   T   T
  0.0025457463608739  0.2532920304074769  0.5676727769582652   T   T   T
  0.6683410895583112  0.6697850495938300  0.4778276718305318   T   T   T
  0.7479724605306352  0.5116348302609190  0.5755457926480106   T   T   T
  0.0037491739842972  0.0028056129517570  0.5812620664640245   T   T   T
  0.6666069664150861  0.9261228185858618  0.4752733793124471   T   T   T
  0.1631160838491441  0.9193077968880170  0.4783655044891374   T   T   T
  0.5038404768334886  0.2593975330394643  0.6024863317770672   T   T   T
  0.2398402781142570  0.2606405475841879  0.5760148817172726   T   T   T
 
  0.00000000E+00  0.00000000E+00  0.00000000E+00
  0.00000000E+00  0.00000000E+00  0.00000000E+00
  0.00000000E+00  0.00000000E+00  0.00000000E+00
  0.00000000E+00  0.00000000E+00  0.00000000E+00
  0.00000000E+00  0.00000000E+00  0.00000000E+00
  0.00000000E+00  0.00000000E+00  0.00000000E+00
  0.00000000E+00  0.00000000E+00  0.00000000E+00
  0.00000000E+00  0.00000000E+00  0.00000000E+00
  0.00000000E+00  0.00000000E+00  0.00000000E+00
  0.00000000E+00  0.00000000E+00  0.00000000E+00
  0.00000000E+00  0.00000000E+00  0.00000000E+00
  0.00000000E+00  0.00000000E+00  0.00000000E+00
  0.00000000E+00  0.00000000E+00  0.00000000E+00
  0.00000000E+00  0.00000000E+00  0.00000000E+00
  0.00000000E+00  0.00000000E+00  0.00000000E+00
  0.00000000E+00  0.00000000E+00  0.00000000E+00
  0.00000000E+00  0.00000000E+00  0.00000000E+00
  0.00000000E+00  0.00000000E+00  0.00000000E+00
  0.00000000E+00  0.00000000E+00  0.00000000E+00
  0.00000000E+00  0.00000000E+00  0.00000000E+00
  0.00000000E+00  0.00000000E+00  0.00000000E+00
  0.00000000E+00  0.00000000E+00  0.00000000E+00
  0.00000000E+00  0.00000000E+00  0.00000000E+00
  0.00000000E+00  0.00000000E+00  0.00000000E+00
  0.00000000E+00  0.00000000E+00  0.00000000E+00
  0.00000000E+00  0.00000000E+00  0.00000000E+00
  0.00000000E+00  0.00000000E+00  0.00000000E+00
  0.00000000E+00  0.00000000E+00  0.00000000E+00
  0.00000000E+00  0.00000000E+00  0.00000000E+00
  0.00000000E+00  0.00000000E+00  0.00000000E+00
  0.00000000E+00  0.00000000E+00  0.00000000E+00
  0.00000000E+00  0.00000000E+00  0.00000000E+00
  0.00000000E+00  0.00000000E+00  0.00000000E+00
  0.00000000E+00  0.00000000E+00  0.00000000E+00
  0.00000000E+00  0.00000000E+00  0.00000000E+00
  0.00000000E+00  0.00000000E+00  0.00000000E+00
  0.00000000E+00  0.00000000E+00  0.00000000E+00
  0.00000000E+00  0.00000000E+00  0.00000000E+00
  0.00000000E+00  0.00000000E+00  0.00000000E+00
  0.00000000E+00  0.00000000E+00  0.00000000E+00
  0.00000000E+00  0.00000000E+00  0.00000000E+00
  0.00000000E+00  0.00000000E+00  0.00000000E+00
  0.00000000E+00  0.00000000E+00  0.00000000E+00
  0.00000000E+00  0.00000000E+00  0.00000000E+00
  0.00000000E+00  0.00000000E+00  0.00000000E+00
  0.00000000E+00  0.00000000E+00  0.00000000E+00
  0.00000000E+00  0.00000000E+00  0.00000000E+00
  0.00000000E+00  0.00000000E+00  0.00000000E+00
  0.00000000E+00  0.00000000E+00  0.00000000E+00
  0.00000000E+00  0.00000000E+00  0.00000000E+00
  0.00000000E+00  0.00000000E+00  0.00000000E+00
  0.00000000E+00  0.00000000E+00  0.00000000E+00
  0.00000000E+00  0.00000000E+00  0.00000000E+00
  0.00000000E+00  0.00000000E+00  0.00000000E+00
  0.00000000E+00  0.00000000E+00  0.00000000E+00
  0.00000000E+00  0.00000000E+00  0.00000000E+00
