Au Pd                                   
   1.00000000000000     
    11.0025815152626798    0.0000000000000000    0.0000000000000000
     5.5012907576313399    9.5285150994265617    0.0000000000000000
     0.0000000000000000    0.0000000000000000   24.4917850942952882
   Au   Pd
    24    24
Direct
  0.5008271424190374  0.4976053371972294  0.6022581021046992
  0.1680710532838816  0.9156859134273172  0.5013253285721949
  0.8326877242512085  0.0831574239230560  0.3958231522933027
  0.4167987151275293  0.1700224578267445  0.5004882064570211
  0.5009941668753450  0.0001087977006729  0.6027602638206085
  0.8340899933036533  0.3317445147170228  0.3933836993990328
  0.2493781368282217  0.2514159582819350  0.6061297860264152
  0.4176430701075862  0.6658961445570389  0.5009114772909194
  0.5011700419430336  0.7494544095832107  0.6022253812594202
  0.8345617354670682  0.5826087327576916  0.3955772040257070
  0.1679615102658306  0.1677139073622236  0.5017765160451559
  0.6655359328556564  0.9169880847642067  0.4999807001694061
  0.3298235999982824  0.0844709368703154  0.3970126721153121
  0.9169579563914700  0.9167364274898220  0.5005149921089024
  0.0859278469154873  0.8317409672083214  0.3962344600886322
 -0.0010431326483425  0.5015285055468707  0.6049940020753621
  0.9181266349342011  0.6652010871112721  0.5005611143149318
  0.0862985591691200  0.5805364616992762  0.3982552889295161
  0.5818413100218252  0.8334541430739595  0.3978778921154627
  0.9145377247370595  0.4182670559856004  0.5003913588000632
  0.5813509144398951  0.5819885578579942  0.3985144233781011
 -0.0000593641075026 -0.0000559228896401  0.6064630804419686
  0.9134155355319710  0.1689078649814535  0.5003229480953918
  0.5823941498393809  0.0849455596972580  0.3953152596053806
  0.4176015495324182  0.9166746887054972  0.5005709580971331
  0.0830580349863011  0.0827410906876815  0.4030754745113591
  0.7500862385300927  0.0012072169939760  0.5972051722549856
  0.7501244738832470  0.2492083265794716  0.5966105369059119
  0.6659171302170657  0.6666212892201417  0.4990432484956940
  0.7509318646321088  0.4985989187852093  0.5963858162530636
  0.8339123432142422  0.8327126782604310  0.4016193046679437
  0.6654300657357896  0.1684855689778081  0.4987172338801996
  0.6643433165139230  0.4170932125942305  0.4997923495646560
  0.2487683652752130  0.7498268318858088  0.5983152067452679
  0.4170122342562788  0.4180182890524161  0.5011758623902262
  0.5812236015902519  0.3335538721076242  0.4040067729228094
  0.3323131601569293  0.8330368675404539  0.4032742734232680
  0.2495508490628614  0.5014275951246187  0.5967460489710927
  0.1677040380942908  0.6649572425279379  0.4993393434715711
  0.3346266739208662  0.5806978289016035  0.4040411002496055
  0.1681707418820651  0.4185549694545520  0.5019321865251767
  0.3334701357104789  0.3338874476922136  0.4047419124223300
  0.2494211033355933  0.0000219984202141  0.5992074316465967
  0.0014317739913903  0.7498610356921204  0.5977416541529401
 -0.0013075530377968  0.2501117014987575  0.5992929229052403
  0.0840227843225015  0.3327294693173466  0.4039502243258647
  0.5017371233945985  0.2499695828398047  0.5968046333925969
  0.7511589928483915  0.7498789504092286  0.5973130222915602
 
  0.00000000E+00  0.00000000E+00  0.00000000E+00
  0.00000000E+00  0.00000000E+00  0.00000000E+00
  0.00000000E+00  0.00000000E+00  0.00000000E+00
  0.00000000E+00  0.00000000E+00  0.00000000E+00
  0.00000000E+00  0.00000000E+00  0.00000000E+00
  0.00000000E+00  0.00000000E+00  0.00000000E+00
  0.00000000E+00  0.00000000E+00  0.00000000E+00
  0.00000000E+00  0.00000000E+00  0.00000000E+00
  0.00000000E+00  0.00000000E+00  0.00000000E+00
  0.00000000E+00  0.00000000E+00  0.00000000E+00
  0.00000000E+00  0.00000000E+00  0.00000000E+00
  0.00000000E+00  0.00000000E+00  0.00000000E+00
  0.00000000E+00  0.00000000E+00  0.00000000E+00
  0.00000000E+00  0.00000000E+00  0.00000000E+00
  0.00000000E+00  0.00000000E+00  0.00000000E+00
  0.00000000E+00  0.00000000E+00  0.00000000E+00
  0.00000000E+00  0.00000000E+00  0.00000000E+00
  0.00000000E+00  0.00000000E+00  0.00000000E+00
  0.00000000E+00  0.00000000E+00  0.00000000E+00
  0.00000000E+00  0.00000000E+00  0.00000000E+00
  0.00000000E+00  0.00000000E+00  0.00000000E+00
  0.00000000E+00  0.00000000E+00  0.00000000E+00
  0.00000000E+00  0.00000000E+00  0.00000000E+00
  0.00000000E+00  0.00000000E+00  0.00000000E+00
  0.00000000E+00  0.00000000E+00  0.00000000E+00
  0.00000000E+00  0.00000000E+00  0.00000000E+00
  0.00000000E+00  0.00000000E+00  0.00000000E+00
  0.00000000E+00  0.00000000E+00  0.00000000E+00
  0.00000000E+00  0.00000000E+00  0.00000000E+00
  0.00000000E+00  0.00000000E+00  0.00000000E+00
  0.00000000E+00  0.00000000E+00  0.00000000E+00
  0.00000000E+00  0.00000000E+00  0.00000000E+00
  0.00000000E+00  0.00000000E+00  0.00000000E+00
  0.00000000E+00  0.00000000E+00  0.00000000E+00
  0.00000000E+00  0.00000000E+00  0.00000000E+00
  0.00000000E+00  0.00000000E+00  0.00000000E+00
  0.00000000E+00  0.00000000E+00  0.00000000E+00
  0.00000000E+00  0.00000000E+00  0.00000000E+00
  0.00000000E+00  0.00000000E+00  0.00000000E+00
  0.00000000E+00  0.00000000E+00  0.00000000E+00
  0.00000000E+00  0.00000000E+00  0.00000000E+00
  0.00000000E+00  0.00000000E+00  0.00000000E+00
  0.00000000E+00  0.00000000E+00  0.00000000E+00
  0.00000000E+00  0.00000000E+00  0.00000000E+00
  0.00000000E+00  0.00000000E+00  0.00000000E+00
  0.00000000E+00  0.00000000E+00  0.00000000E+00
  0.00000000E+00  0.00000000E+00  0.00000000E+00
  0.00000000E+00  0.00000000E+00  0.00000000E+00
