Au  O Pd                                
   1.00000000000000     
    11.0025815152626798    0.0000000000000000    0.0000000000000000
     5.5012907576313399    9.5285150994265617    0.0000000000000000
     0.0000000000000000    0.0000000000000000   26.1917850942952910
   Au   O    Pd
    24     8    24
Selective dynamics
Direct
  0.0833333333333357  0.0833333333333357  0.3817991009012260   F   F   F
  0.0833333333333357  0.8333333333333357  0.3817991009012260   F   F   F
  0.9177565901348690  0.9158187002981840  0.4769206107351526   T   T   T
  0.0833333333333357  0.3333333333333357  0.3817991009012260   F   F   F
  0.9201177536711193  0.1707487144980684  0.4768414810288668   T   T   T
  0.3333333333333357  0.0833333333333357  0.3817991009012260   F   F   F
  0.0833333333333357  0.5833333333333357  0.3817991009012260   F   F   F
  0.8333333333333357  0.8333333333333357  0.3817991009012260   F   F   F
  0.3333333333333357  0.8333333333333357  0.3817991009012260   F   F   F
  0.2815197697831907 -0.0167899722142499  0.5678154814813203   T   T   T
  0.3333333333333357  0.5833333333333357  0.3817991009012260   F   F   F
  0.1735786794664849  0.9138332405368231  0.4776606576599677   T   T   T
  0.7496409320593976  0.5132719843447131  0.5654679229043247   T   T   T
  0.5833333333333357  0.0833333333333357  0.3817991009012260   F   F   F
  0.4172788639680032  0.1658898379603282  0.4782622973391042   T   T   T
  0.5137934560529913  0.2505396397365902  0.5648373489878722   T   T   T
  0.6676785386748766  0.6654803052667322  0.4759891799120183   T   T   T
  0.5833333333333357  0.5833333333333357  0.3817991009012260   F   F   F
  0.5106445059777005  0.5039675556282432  0.5633141109045572   T   T   T
  0.5833333333333357  0.8333333333333357  0.3817991009012260   F   F   F
  0.4952481044874221  0.7415192858146189  0.6307956863252008   T   T   T
  0.8333333333333357  0.0833333333333357  0.3817991009012260   F   F   F
  0.7568080033845934 -0.0095913830049419  0.5665347088217316   T   T   T
  0.7379282736448149  0.7595647895219299  0.5664098676958594   T   T   T
  0.0923827883039636  0.3337620126715903  0.6126822502727951   T   T   T
  0.0839101997552504  0.6018557775395778  0.6095432342346627   T   T   T
  0.6257696096490477  0.8148569508295888  0.6398803301406564   T   T   T
  0.5943663345225561  0.0884935595998289  0.6238241976138658   T   T   T
  0.3374948908459890  0.3443299926441528  0.6125436320214696   T   T   T
  0.8622773765684806  0.0798665068825828  0.6136647627186109   T   T   T
  0.3793041756356900  0.6514498313859235  0.6265817897958501   T   T   T
  0.8375418941594677  0.3342025268450766  0.6138830076530790   T   T   T
  0.3333333333333357  0.3333333333333357  0.3817991009012260   F   F   F
  0.1687848612266789  0.4167494540436291  0.4738938459017812   T   T   T
  0.2669501756148497  0.2375004662650321  0.5722104706868083   T   T   T
  0.0023923594704786  0.7578292596521294  0.5627976307740589   T   T   T
  0.1708242204188602  0.6628672836670053  0.4749574134252816   T   T   T
  0.2548340717628348  0.5088320312630124  0.5652506033055066   T   T   T
  0.2610933312145713  0.7514510187909074  0.5651060347089819   T   T   T
 -0.0005976776794978  0.5068517304911653  0.5685576330807706   T   T   T
  0.9173541763985932  0.6640798146753363  0.4766227834876919   T   T   T
  0.4755481322105405  0.0057495688804446  0.6205698001036331   T   T   T
  0.4189645215244683  0.4156059317856960  0.4751204388941321   T   T   T
  0.0178467139406564  0.2338938286110333  0.5743337041276697   T   T   T
  0.5833333333333357  0.3333333333333357  0.3817991009012260   F   F   F
  0.9223526634582467  0.4156010522140818  0.4754725507347268   T   T   T
  0.6668117702782391  0.9180530019670214  0.4768346902787939   T   T   T
  0.7561940006491641  0.2492352209949279  0.5678427237791943   T   T   T
  0.6693352672587017  0.4142256909229694  0.4738686748780153   T   T   T
  0.8333333333333357  0.3333333333333357  0.3817991009012260   F   F   F
  0.6675895219614525  0.1684952945493830  0.4752440531273402   T   T   T
  0.0230353270446784 -0.0075209088289131  0.5675888868717658   T   T   T
  0.1703445477130436  0.1679262526056447  0.4805057748799956   T   T   T
  0.4208813626166880  0.9160464772320673  0.4761611255669275   T   T   T
  0.4194724633502826  0.6651814187563716  0.4738748289183741   T   T   T
  0.8333333333333357  0.5833333333333357  0.3817991009012260   F   F   F
 
  0.00000000E+00  0.00000000E+00  0.00000000E+00
  0.00000000E+00  0.00000000E+00  0.00000000E+00
  0.00000000E+00  0.00000000E+00  0.00000000E+00
  0.00000000E+00  0.00000000E+00  0.00000000E+00
  0.00000000E+00  0.00000000E+00  0.00000000E+00
  0.00000000E+00  0.00000000E+00  0.00000000E+00
  0.00000000E+00  0.00000000E+00  0.00000000E+00
  0.00000000E+00  0.00000000E+00  0.00000000E+00
  0.00000000E+00  0.00000000E+00  0.00000000E+00
  0.00000000E+00  0.00000000E+00  0.00000000E+00
  0.00000000E+00  0.00000000E+00  0.00000000E+00
  0.00000000E+00  0.00000000E+00  0.00000000E+00
  0.00000000E+00  0.00000000E+00  0.00000000E+00
  0.00000000E+00  0.00000000E+00  0.00000000E+00
  0.00000000E+00  0.00000000E+00  0.00000000E+00
  0.00000000E+00  0.00000000E+00  0.00000000E+00
  0.00000000E+00  0.00000000E+00  0.00000000E+00
  0.00000000E+00  0.00000000E+00  0.00000000E+00
  0.00000000E+00  0.00000000E+00  0.00000000E+00
  0.00000000E+00  0.00000000E+00  0.00000000E+00
  0.00000000E+00  0.00000000E+00  0.00000000E+00
  0.00000000E+00  0.00000000E+00  0.00000000E+00
  0.00000000E+00  0.00000000E+00  0.00000000E+00
  0.00000000E+00  0.00000000E+00  0.00000000E+00
  0.00000000E+00  0.00000000E+00  0.00000000E+00
  0.00000000E+00  0.00000000E+00  0.00000000E+00
  0.00000000E+00  0.00000000E+00  0.00000000E+00
  0.00000000E+00  0.00000000E+00  0.00000000E+00
  0.00000000E+00  0.00000000E+00  0.00000000E+00
  0.00000000E+00  0.00000000E+00  0.00000000E+00
  0.00000000E+00  0.00000000E+00  0.00000000E+00
  0.00000000E+00  0.00000000E+00  0.00000000E+00
  0.00000000E+00  0.00000000E+00  0.00000000E+00
  0.00000000E+00  0.00000000E+00  0.00000000E+00
  0.00000000E+00  0.00000000E+00  0.00000000E+00
  0.00000000E+00  0.00000000E+00  0.00000000E+00
  0.00000000E+00  0.00000000E+00  0.00000000E+00
  0.00000000E+00  0.00000000E+00  0.00000000E+00
  0.00000000E+00  0.00000000E+00  0.00000000E+00
  0.00000000E+00  0.00000000E+00  0.00000000E+00
  0.00000000E+00  0.00000000E+00  0.00000000E+00
  0.00000000E+00  0.00000000E+00  0.00000000E+00
  0.00000000E+00  0.00000000E+00  0.00000000E+00
  0.00000000E+00  0.00000000E+00  0.00000000E+00
  0.00000000E+00  0.00000000E+00  0.00000000E+00
  0.00000000E+00  0.00000000E+00  0.00000000E+00
  0.00000000E+00  0.00000000E+00  0.00000000E+00
  0.00000000E+00  0.00000000E+00  0.00000000E+00
  0.00000000E+00  0.00000000E+00  0.00000000E+00
  0.00000000E+00  0.00000000E+00  0.00000000E+00
  0.00000000E+00  0.00000000E+00  0.00000000E+00
  0.00000000E+00  0.00000000E+00  0.00000000E+00
  0.00000000E+00  0.00000000E+00  0.00000000E+00
  0.00000000E+00  0.00000000E+00  0.00000000E+00
  0.00000000E+00  0.00000000E+00  0.00000000E+00
  0.00000000E+00  0.00000000E+00  0.00000000E+00
