Au  O Pd                                
   1.00000000000000     
    11.0025815152626798    0.0000000000000000    0.0000000000000000
     5.5012907576313399    9.5285150994265617    0.0000000000000000
     0.0000000000000000    0.0000000000000000   26.1917850942952910
   Au   O    Pd
    24     8    24
Selective dynamics
Direct
  0.0833333333333357  0.0833333333333357  0.3817991009012260   F   F   F
  0.3333333333333357  0.8333333333333357  0.3817991009012260   F   F   F
  0.0833333333333357  0.8333333333333357  0.3817991009012260   F   F   F
  0.6662749598949314  0.9200494717349784  0.4778857679300983   T   T   T
  0.8333333333333357  0.3333333333333357  0.3817991009012260   F   F   F
  0.7166389051923728  0.0172518869240371  0.6008021612854191   T   T   T
 -0.0020235615837947  0.2476228697394665  0.5627015769727224   T   T   T
  0.8333333333333357  0.0833333333333357  0.3817991009012260   F   F   F
  0.0833333333333357  0.5833333333333357  0.3817991009012260   F   F   F
  0.9128400019504529  0.6669189816978306  0.4781355972711252   T   T   T
  0.4942068815738822  0.7620614271277703  0.5665438996710572   T   T   T
  0.9134975202629096  0.9200885613202514  0.4838046684141155   T   T   T
  0.4135164744277654  0.9166504130398214  0.4746124709504733   T   T   T
  0.0305846228955817  0.7165007384404817  0.6093488994588540   T   T   T
  0.5833333333333357  0.8333333333333357  0.3817991009012260   F   F   F
  0.3333333333333357  0.0833333333333357  0.3817991009012260   F   F   F
  0.5833333333333357  0.5833333333333357  0.3817991009012260   F   F   F
  0.3333333333333357  0.3333333333333357  0.3817991009012260   F   F   F
  0.1644050755902723  0.4124263145240143  0.4782069281882507   T   T   T
  0.4990065958998720  0.2443990920907745  0.5622056034963823   T   T   T
  0.5833333333333357  0.3333333333333357  0.3817991009012260   F   F   F
  0.3333333333333357  0.5833333333333357  0.3817991009012260   F   F   F
  0.1635917603356035  0.6693916809231534  0.4781533954865914   T   T   T
  0.2524561455402401  0.4997558221894131  0.5676533676416206   T   T   T
  0.3412889036982390  0.0687663982171607  0.6114882461427197   T   T   T
  0.1191094262467709  0.8435681888564366  0.6237141542810960   T   T   T
  0.0808044843410913  0.3349507927943399  0.6147214100339521   T   T   T
  0.8209846928395491  0.8218962950681272  0.6336623744068173   T   T   T
  0.8267670577817258  0.5810719933286662  0.6107201062939471   T   T   T
  0.8454130926327275  0.1011840391488562  0.6218088237368822   T   T   T
  0.5768921889765607  0.3428521308562855  0.6123892182257339   T   T   T
  0.5778217015589604  0.5825641438213742  0.6124385847005129   T   T   T
  0.1638858802973875  0.1676392353288031  0.4723239555254196   T   T   T
  0.4168143010497006  0.4176149875520072  0.4753089612636803   T   T   T
  0.5833333333333357  0.0833333333333357  0.3817991009012260   F   F   F
  0.2549375187707856  0.2498664137365071  0.5723866006252660   T   T   T
  0.2458810684278931  0.0012020982573171  0.5628669539078095   T   T   T
  0.4140520550547945  0.6658296200499716  0.4779488586885060   T   T   T
  0.4914154955428738  0.5051493512093125  0.5644183523204011   T   T   T
  0.7457276760557516  0.7605031033823476  0.5731654646465661   T   T   T
  0.2514786796383301  0.7507645567741738  0.5665520802453519   T   T   T
  0.0009667180260362  0.5078345871786936  0.5710403431445209   T   T   T
  0.6668361669540034  0.1679492645170306  0.4734569122968148   T   T   T
  0.9125154093460294  0.4178144567681470  0.4733749374442905   T   T   T
  0.0833333333333357  0.3333333333333357  0.3817991009012260   F   F   F
  0.6664462039500871  0.4157608635268693  0.4772802837948306   T   T   T
  0.7516411512136281  0.2472598513435529  0.5682996195859836   T   T   T
  0.8333333333333357  0.5833333333333357  0.3817991009012260   F   F   F
  0.6662565701173861  0.6658749029823445  0.4759695955928251   T   T   T
  0.7489885543720183  0.4929100641182911  0.5659046585618155   T   T   T
  0.0039301925310837 -0.0019561248310272  0.5738200711533896   T   T   T
  0.8333333333333357  0.8333333333333357  0.3817991009012260   F   F   F
  0.9142652897003013  0.1672806233498206  0.4784819029049978   T   T   T
  0.1607968826263282  0.9207230524551638  0.4779519795266274   T   T   T
  0.4159565741587591  0.1682872616069762  0.4743964953148302   T   T   T
  0.5028870098165935 -0.0020286294728132  0.5640350203238006   T   T   T
 
  0.00000000E+00  0.00000000E+00  0.00000000E+00
  0.00000000E+00  0.00000000E+00  0.00000000E+00
  0.00000000E+00  0.00000000E+00  0.00000000E+00
  0.00000000E+00  0.00000000E+00  0.00000000E+00
  0.00000000E+00  0.00000000E+00  0.00000000E+00
  0.00000000E+00  0.00000000E+00  0.00000000E+00
  0.00000000E+00  0.00000000E+00  0.00000000E+00
  0.00000000E+00  0.00000000E+00  0.00000000E+00
  0.00000000E+00  0.00000000E+00  0.00000000E+00
  0.00000000E+00  0.00000000E+00  0.00000000E+00
  0.00000000E+00  0.00000000E+00  0.00000000E+00
  0.00000000E+00  0.00000000E+00  0.00000000E+00
  0.00000000E+00  0.00000000E+00  0.00000000E+00
  0.00000000E+00  0.00000000E+00  0.00000000E+00
  0.00000000E+00  0.00000000E+00  0.00000000E+00
  0.00000000E+00  0.00000000E+00  0.00000000E+00
  0.00000000E+00  0.00000000E+00  0.00000000E+00
  0.00000000E+00  0.00000000E+00  0.00000000E+00
  0.00000000E+00  0.00000000E+00  0.00000000E+00
  0.00000000E+00  0.00000000E+00  0.00000000E+00
  0.00000000E+00  0.00000000E+00  0.00000000E+00
  0.00000000E+00  0.00000000E+00  0.00000000E+00
  0.00000000E+00  0.00000000E+00  0.00000000E+00
  0.00000000E+00  0.00000000E+00  0.00000000E+00
  0.00000000E+00  0.00000000E+00  0.00000000E+00
  0.00000000E+00  0.00000000E+00  0.00000000E+00
  0.00000000E+00  0.00000000E+00  0.00000000E+00
  0.00000000E+00  0.00000000E+00  0.00000000E+00
  0.00000000E+00  0.00000000E+00  0.00000000E+00
  0.00000000E+00  0.00000000E+00  0.00000000E+00
  0.00000000E+00  0.00000000E+00  0.00000000E+00
  0.00000000E+00  0.00000000E+00  0.00000000E+00
  0.00000000E+00  0.00000000E+00  0.00000000E+00
  0.00000000E+00  0.00000000E+00  0.00000000E+00
  0.00000000E+00  0.00000000E+00  0.00000000E+00
  0.00000000E+00  0.00000000E+00  0.00000000E+00
  0.00000000E+00  0.00000000E+00  0.00000000E+00
  0.00000000E+00  0.00000000E+00  0.00000000E+00
  0.00000000E+00  0.00000000E+00  0.00000000E+00
  0.00000000E+00  0.00000000E+00  0.00000000E+00
  0.00000000E+00  0.00000000E+00  0.00000000E+00
  0.00000000E+00  0.00000000E+00  0.00000000E+00
  0.00000000E+00  0.00000000E+00  0.00000000E+00
  0.00000000E+00  0.00000000E+00  0.00000000E+00
  0.00000000E+00  0.00000000E+00  0.00000000E+00
  0.00000000E+00  0.00000000E+00  0.00000000E+00
  0.00000000E+00  0.00000000E+00  0.00000000E+00
  0.00000000E+00  0.00000000E+00  0.00000000E+00
  0.00000000E+00  0.00000000E+00  0.00000000E+00
  0.00000000E+00  0.00000000E+00  0.00000000E+00
  0.00000000E+00  0.00000000E+00  0.00000000E+00
  0.00000000E+00  0.00000000E+00  0.00000000E+00
  0.00000000E+00  0.00000000E+00  0.00000000E+00
  0.00000000E+00  0.00000000E+00  0.00000000E+00
  0.00000000E+00  0.00000000E+00  0.00000000E+00
  0.00000000E+00  0.00000000E+00  0.00000000E+00
