Au Pd                                   
   1.00000000000000     
    11.0025815152626798    0.0000000000000000    0.0000000000000000
     5.5012907576313399    9.5285150994265617    0.0000000000000000
     0.0000000000000000    0.0000000000000000   24.4917850942952882
   Au   Pd
    24    24
Direct
  0.2475660576576410  0.7489696054918120  0.6022345966679196
  0.4148227661145171  0.6679240154972356  0.5006021427128462
  0.5834605074363830  0.3331052199640489  0.3980618043487245
  0.4986870390045199  0.4999931032077409  0.6050390167112377
  0.4165845722390324  0.1668517784907818  0.5005529640642515
  0.5853934889249853  0.0793384657920361  0.3988307480280608
  0.3334126854658497  0.8349438871930461  0.3977185245950352
  0.8348250055396244  0.0824512446364921  0.3983437884966247
  0.3319023858788467  0.5835384613872847  0.3981898893872369
  0.7482300805371515 -0.0011839252755767  0.6025076897586193
  0.4979175713400015  0.2505986359457125  0.6024590731638786
  0.2531314582295049 -0.0004847509387167  0.6002742384463701
  0.8372922807406258  0.3331825228924736  0.3959610331509730
  0.3294174920361772  0.3350934869648252  0.3981506730411596
  0.6674058124019192  0.4136863719988927  0.5007658214513044
 -0.0015863474489381  0.0004598713500842  0.6017068628550792
  0.7500407105883725  0.5022172536132773  0.6060262073076468
  0.9204330631242905  0.4151126423678639  0.5004966822753035
  0.0002176753558428  0.2515024610657642  0.6026601170438903
  0.3309579720541485  0.0838683921922690  0.3973182837618179
  0.6671300806887052  0.6689071063850981  0.5003155285363728
  0.5863601529897275  0.5847455773578623  0.3935913329363263
  0.0824700212675008  0.8327721138339017  0.3978575527973701
  0.9172421816306238  0.9155050610956713  0.5001637334283185
  0.8349472997214801  0.5846971296027983  0.4034129350480636
  0.5850206372946499  0.8326080693481471  0.4034059025738248
  0.7494014874887466  0.2504380533808840  0.5977396891066736
  0.6671648383368894  0.1658795932905498  0.5006670780956383
  0.8337027820093015  0.8302839772139706  0.4037788904056112
  0.5011247569847370  0.7501308655458266  0.5971755524139005
  0.4154381401549232  0.9183924090216463  0.4993144139281341
  0.0830502423150965  0.0844160133746999  0.4046813250327113
  0.5003286164540820 -0.0016832460426418  0.5968334441554491
  0.6669195734369100  0.9168890792666415  0.5007079452298029
  0.1668916024039775  0.9177296107314949  0.5004031378432398
  0.2475121954710041  0.5002093265994105  0.5956542403878432
  0.1670038224347440  0.6652550767613475  0.4995089322959603
  0.2486683894346712  0.2523031543756416  0.5963039233258071
  0.1674867983086009  0.4181881730764921  0.4997152435507855
  0.1673272438032811  0.1648851515013097  0.5006651908327787
 -0.0014311860128160  0.7474675634023157  0.5963985465918407
  0.0008742419304855  0.5017584884973594  0.5970220501917276
  0.9180574532349854  0.6664109084975360  0.5005152825374443
  0.0805579830510221  0.5837536922093656  0.4042822166715568
  0.0825852190020056  0.3345770051599375  0.4036563403122629
  0.9177719505652245  0.1656294233059496  0.5002620350934501
  0.4158646905453433  0.4168917741989275  0.5004282684789959
  0.7504165078336009  0.7497901051705090  0.5976391109301307
 
  0.00000000E+00  0.00000000E+00  0.00000000E+00
  0.00000000E+00  0.00000000E+00  0.00000000E+00
  0.00000000E+00  0.00000000E+00  0.00000000E+00
  0.00000000E+00  0.00000000E+00  0.00000000E+00
  0.00000000E+00  0.00000000E+00  0.00000000E+00
  0.00000000E+00  0.00000000E+00  0.00000000E+00
  0.00000000E+00  0.00000000E+00  0.00000000E+00
  0.00000000E+00  0.00000000E+00  0.00000000E+00
  0.00000000E+00  0.00000000E+00  0.00000000E+00
  0.00000000E+00  0.00000000E+00  0.00000000E+00
  0.00000000E+00  0.00000000E+00  0.00000000E+00
  0.00000000E+00  0.00000000E+00  0.00000000E+00
  0.00000000E+00  0.00000000E+00  0.00000000E+00
  0.00000000E+00  0.00000000E+00  0.00000000E+00
  0.00000000E+00  0.00000000E+00  0.00000000E+00
  0.00000000E+00  0.00000000E+00  0.00000000E+00
  0.00000000E+00  0.00000000E+00  0.00000000E+00
  0.00000000E+00  0.00000000E+00  0.00000000E+00
  0.00000000E+00  0.00000000E+00  0.00000000E+00
  0.00000000E+00  0.00000000E+00  0.00000000E+00
  0.00000000E+00  0.00000000E+00  0.00000000E+00
  0.00000000E+00  0.00000000E+00  0.00000000E+00
  0.00000000E+00  0.00000000E+00  0.00000000E+00
  0.00000000E+00  0.00000000E+00  0.00000000E+00
  0.00000000E+00  0.00000000E+00  0.00000000E+00
  0.00000000E+00  0.00000000E+00  0.00000000E+00
  0.00000000E+00  0.00000000E+00  0.00000000E+00
  0.00000000E+00  0.00000000E+00  0.00000000E+00
  0.00000000E+00  0.00000000E+00  0.00000000E+00
  0.00000000E+00  0.00000000E+00  0.00000000E+00
  0.00000000E+00  0.00000000E+00  0.00000000E+00
  0.00000000E+00  0.00000000E+00  0.00000000E+00
  0.00000000E+00  0.00000000E+00  0.00000000E+00
  0.00000000E+00  0.00000000E+00  0.00000000E+00
  0.00000000E+00  0.00000000E+00  0.00000000E+00
  0.00000000E+00  0.00000000E+00  0.00000000E+00
  0.00000000E+00  0.00000000E+00  0.00000000E+00
  0.00000000E+00  0.00000000E+00  0.00000000E+00
  0.00000000E+00  0.00000000E+00  0.00000000E+00
  0.00000000E+00  0.00000000E+00  0.00000000E+00
  0.00000000E+00  0.00000000E+00  0.00000000E+00
  0.00000000E+00  0.00000000E+00  0.00000000E+00
  0.00000000E+00  0.00000000E+00  0.00000000E+00
  0.00000000E+00  0.00000000E+00  0.00000000E+00
  0.00000000E+00  0.00000000E+00  0.00000000E+00
  0.00000000E+00  0.00000000E+00  0.00000000E+00
  0.00000000E+00  0.00000000E+00  0.00000000E+00
  0.00000000E+00  0.00000000E+00  0.00000000E+00
