Au Pd                                   
   1.00000000000000     
    11.0025815152626798    0.0000000000000000    0.0000000000000000
     5.5012907576313399    9.5285150994265617    0.0000000000000000
     0.0000000000000000    0.0000000000000000   24.4917850942952882
   Au   Pd
    24    24
Direct
  0.7466878663138984  0.7518494883397639  0.6023535100009234
  0.5015150617130006  0.2485233031610055  0.6002173643333080
  0.5865811129416604  0.3327642540810870  0.3997203213546613
  0.5838669348498082  0.0832666292754507  0.3996117644340890
  0.7490861706349555  0.0012527739880287  0.6022481032480047
  0.3353113208748471  0.8332483459211384  0.3981452338379956
  0.2504974654600012  0.5004170249027078  0.6021310291922616
  0.1676298426139181  0.6660803552372717  0.4992600314061559
  0.3366156790828476  0.5810630339573994  0.3971048099542063
  0.2503834684750504  0.2472705966866254  0.6027734931591276
  0.2504966453880417  0.9964406580092982  0.6006033128730036
  0.1668758036553348  0.1681086140159221  0.4999071658399783
  0.4998346602277839  0.5016538416029142  0.6001541758578074
  0.0005895562839752  0.7518176968382528  0.6039475656866462
  0.9143045029012796  0.1692434779512940  0.4996455468344022
  0.8330781256935643  0.8330379849522160  0.3986751103338592
  0.7502018444694901  0.4976172659770671  0.6023726151078157
  0.3326020852483088  0.0844964920470425  0.3980338662306311
  0.8337755869748730  0.5799781215202644  0.3993813149674543
  0.0852732454057977  0.5796196720503972  0.3985536068225664
  0.6649487488852787  0.6682806822071986  0.5002394339257352
  0.9996521013023313  0.4985960631890406  0.6010761359928999
  0.0833658746601726  0.8359068023472648  0.3941656414929031
  0.9149265365563485  0.9179728360454712  0.4998685449105996
  0.6636503246589113  0.1684911446918991  0.4998629625727760
  0.8360547420792749  0.3313347285027318  0.4032642963927497
  0.8349063776224399  0.0837411313032068  0.4022023055712053
  0.4983587872219218  0.7507075507816685  0.5959264099434208
  0.5842642125832925  0.8320838944189382  0.4032339595718183
  0.4151401355624744  0.9180385775654227  0.4987845467752088
  0.7522175862434685  0.2485304159630110  0.5965956151237679
  0.6642533647476808  0.4179398638926579  0.5002490066083246
  0.0816472844224462  0.0855320092232518  0.4020296576558260
  0.5858735210251165  0.5817745948745834  0.4034141907326818
  0.4174604180747381  0.4162785121944480  0.5001298201090758
  0.4990096085304888  0.9991163558579597  0.5956321951562331
  0.4171895849972302  0.1673494690371546  0.4999662021487308
  0.6641097108288370  0.9190628892185395  0.5000585894692110
  0.1682622626194175  0.9163130733927528  0.4983929085215922
  0.1661100146316532  0.4174628716130021  0.5009333455677470
  0.3337696514439764  0.3327539913279497  0.4049480650200995
  0.9159084193482707  0.6668947069976179  0.5005738019614480
  0.9991040531586927  0.2476224841131574  0.5977376509660558
  0.9152533568639077  0.4187464709090271  0.5007659082095408
  0.0840774151233585  0.3326877635877679  0.4037802000741645
 -0.0001992130498629  0.0006684308055220  0.5968336687308748
  0.4158647334514857  0.6672945481660434  0.4989682131532447
  0.2496134071982112  0.7510685072575783  0.5955267821671735
 
  0.00000000E+00  0.00000000E+00  0.00000000E+00
  0.00000000E+00  0.00000000E+00  0.00000000E+00
  0.00000000E+00  0.00000000E+00  0.00000000E+00
  0.00000000E+00  0.00000000E+00  0.00000000E+00
  0.00000000E+00  0.00000000E+00  0.00000000E+00
  0.00000000E+00  0.00000000E+00  0.00000000E+00
  0.00000000E+00  0.00000000E+00  0.00000000E+00
  0.00000000E+00  0.00000000E+00  0.00000000E+00
  0.00000000E+00  0.00000000E+00  0.00000000E+00
  0.00000000E+00  0.00000000E+00  0.00000000E+00
  0.00000000E+00  0.00000000E+00  0.00000000E+00
  0.00000000E+00  0.00000000E+00  0.00000000E+00
  0.00000000E+00  0.00000000E+00  0.00000000E+00
  0.00000000E+00  0.00000000E+00  0.00000000E+00
  0.00000000E+00  0.00000000E+00  0.00000000E+00
  0.00000000E+00  0.00000000E+00  0.00000000E+00
  0.00000000E+00  0.00000000E+00  0.00000000E+00
  0.00000000E+00  0.00000000E+00  0.00000000E+00
  0.00000000E+00  0.00000000E+00  0.00000000E+00
  0.00000000E+00  0.00000000E+00  0.00000000E+00
  0.00000000E+00  0.00000000E+00  0.00000000E+00
  0.00000000E+00  0.00000000E+00  0.00000000E+00
  0.00000000E+00  0.00000000E+00  0.00000000E+00
  0.00000000E+00  0.00000000E+00  0.00000000E+00
  0.00000000E+00  0.00000000E+00  0.00000000E+00
  0.00000000E+00  0.00000000E+00  0.00000000E+00
  0.00000000E+00  0.00000000E+00  0.00000000E+00
  0.00000000E+00  0.00000000E+00  0.00000000E+00
  0.00000000E+00  0.00000000E+00  0.00000000E+00
  0.00000000E+00  0.00000000E+00  0.00000000E+00
  0.00000000E+00  0.00000000E+00  0.00000000E+00
  0.00000000E+00  0.00000000E+00  0.00000000E+00
  0.00000000E+00  0.00000000E+00  0.00000000E+00
  0.00000000E+00  0.00000000E+00  0.00000000E+00
  0.00000000E+00  0.00000000E+00  0.00000000E+00
  0.00000000E+00  0.00000000E+00  0.00000000E+00
  0.00000000E+00  0.00000000E+00  0.00000000E+00
  0.00000000E+00  0.00000000E+00  0.00000000E+00
  0.00000000E+00  0.00000000E+00  0.00000000E+00
  0.00000000E+00  0.00000000E+00  0.00000000E+00
  0.00000000E+00  0.00000000E+00  0.00000000E+00
  0.00000000E+00  0.00000000E+00  0.00000000E+00
  0.00000000E+00  0.00000000E+00  0.00000000E+00
  0.00000000E+00  0.00000000E+00  0.00000000E+00
  0.00000000E+00  0.00000000E+00  0.00000000E+00
  0.00000000E+00  0.00000000E+00  0.00000000E+00
  0.00000000E+00  0.00000000E+00  0.00000000E+00
  0.00000000E+00  0.00000000E+00  0.00000000E+00
