Au Pd                                   
   1.00000000000000     
    11.0025815152626798    0.0000000000000000    0.0000000000000000
     5.5012907576313399    9.5285150994265617    0.0000000000000000
     0.0000000000000000    0.0000000000000000   24.4917850942952882
   Au   Pd
    24    24
Direct
  0.7470411792292143  0.7518743870543876  0.6023304671307921
  0.5017661598276510  0.2485152722831985  0.6002773065456369
  0.5864789673919373  0.3326445884365354  0.3992189895913493
  0.5835566605140433  0.0834023092652886  0.3992348586428472
  0.7492498338262052  0.0013497260048376  0.6025640317816366
  0.3347485441433650  0.8334332122334140  0.3984265487145726
  0.2506292051364092  0.5002820352650496  0.6023304702658452
  0.1676352354092780  0.6659290293228319  0.4997223244231931
  0.3362591939110036  0.5812590607771471  0.3972137458786765
  0.2505864654184463  0.2473210758251711  0.6026072923911323
  0.2508733837876100 -0.0035315672529810  0.6014110966033158
  0.1670563794257293  0.1682828725569262  0.4998635799725409
  0.5002178222388014  0.5015297502217627  0.6005543974160278
  0.0006623261344439  0.7517051230544494  0.6045796799826865
  0.9143480276729788  0.1690216289078010  0.4996427223768143
  0.8326948111675366  0.8332514324231226  0.3984123325726764
  0.7508172188306553  0.4974715566833676  0.6022388447946413
  0.3322267548454322  0.0844831646537116  0.3976723426229120
  0.8333531691824262  0.5801472188594302  0.3986110454613964
  0.0850722385666609  0.5797103124108399  0.3980424129399573
  0.6652111801081846  0.6681950108882575  0.5003498436001728
 -0.0000150102362497  0.4984341524216260  0.6004670762813777
  0.0831934160619631  0.8357556910198005  0.3946365227748673
  0.9148525289294904  0.9177760562453869  0.5000828023133287
  0.6636683298701986  0.1683260797564877  0.4997085829248890
  0.8358202041001159  0.3312431174709314  0.4031425833961501
  0.8347097069691400  0.0835691877835557  0.4024069567350723
  0.4985147536679347  0.7507447429417520  0.5959337387376717
  0.5838078641339827  0.8322306564545154  0.4036814229249658
  0.4151475003020704  0.9182506922339632  0.4990364418375181
  0.7524700350194258  0.2485685081078498  0.5963871135092973
  0.6639445931666421  0.4178804725167309  0.5002223056442828
  0.0813493266918300  0.0852570999736304  0.4024370084611195
  0.5855168780680645  0.5818106063054992  0.4037102764467378
  0.4173538772134916  0.4161614394384384  0.5000056075136433
  0.4991797250665529 -0.0006159931783835  0.5957319483889545
  0.4172160931633779  0.1674531177764860  0.4998001316057173
  0.6641175800655280  0.9192684775018346  0.5001358158291312
  0.1684975010443223  0.9162475512027041  0.4990922419180280
  0.1662779800866809  0.4177094070152630  0.5005684079425532
  0.3337080627938457  0.3327725258424720  0.4044470186724461
  0.9159097598280369  0.6670561447649535  0.4999150303893963
 -0.0005088969911765  0.2476116027159607  0.5971943315730088
  0.9152171630135769  0.4188271194677816  0.5002751029089371
  0.0837685747871514  0.3326016069183553  0.4035252043133021
  0.0001260673822304  0.0007050569943647  0.5969735977303723
  0.4158386562266835  0.6672152417992185  0.4992080518084167
  0.2498329728070775  0.7508624386342737  0.5959703437099922
 
  0.00000000E+00  0.00000000E+00  0.00000000E+00
  0.00000000E+00  0.00000000E+00  0.00000000E+00
  0.00000000E+00  0.00000000E+00  0.00000000E+00
  0.00000000E+00  0.00000000E+00  0.00000000E+00
  0.00000000E+00  0.00000000E+00  0.00000000E+00
  0.00000000E+00  0.00000000E+00  0.00000000E+00
  0.00000000E+00  0.00000000E+00  0.00000000E+00
  0.00000000E+00  0.00000000E+00  0.00000000E+00
  0.00000000E+00  0.00000000E+00  0.00000000E+00
  0.00000000E+00  0.00000000E+00  0.00000000E+00
  0.00000000E+00  0.00000000E+00  0.00000000E+00
  0.00000000E+00  0.00000000E+00  0.00000000E+00
  0.00000000E+00  0.00000000E+00  0.00000000E+00
  0.00000000E+00  0.00000000E+00  0.00000000E+00
  0.00000000E+00  0.00000000E+00  0.00000000E+00
  0.00000000E+00  0.00000000E+00  0.00000000E+00
  0.00000000E+00  0.00000000E+00  0.00000000E+00
  0.00000000E+00  0.00000000E+00  0.00000000E+00
  0.00000000E+00  0.00000000E+00  0.00000000E+00
  0.00000000E+00  0.00000000E+00  0.00000000E+00
  0.00000000E+00  0.00000000E+00  0.00000000E+00
  0.00000000E+00  0.00000000E+00  0.00000000E+00
  0.00000000E+00  0.00000000E+00  0.00000000E+00
  0.00000000E+00  0.00000000E+00  0.00000000E+00
  0.00000000E+00  0.00000000E+00  0.00000000E+00
  0.00000000E+00  0.00000000E+00  0.00000000E+00
  0.00000000E+00  0.00000000E+00  0.00000000E+00
  0.00000000E+00  0.00000000E+00  0.00000000E+00
  0.00000000E+00  0.00000000E+00  0.00000000E+00
  0.00000000E+00  0.00000000E+00  0.00000000E+00
  0.00000000E+00  0.00000000E+00  0.00000000E+00
  0.00000000E+00  0.00000000E+00  0.00000000E+00
  0.00000000E+00  0.00000000E+00  0.00000000E+00
  0.00000000E+00  0.00000000E+00  0.00000000E+00
  0.00000000E+00  0.00000000E+00  0.00000000E+00
  0.00000000E+00  0.00000000E+00  0.00000000E+00
  0.00000000E+00  0.00000000E+00  0.00000000E+00
  0.00000000E+00  0.00000000E+00  0.00000000E+00
  0.00000000E+00  0.00000000E+00  0.00000000E+00
  0.00000000E+00  0.00000000E+00  0.00000000E+00
  0.00000000E+00  0.00000000E+00  0.00000000E+00
  0.00000000E+00  0.00000000E+00  0.00000000E+00
  0.00000000E+00  0.00000000E+00  0.00000000E+00
  0.00000000E+00  0.00000000E+00  0.00000000E+00
  0.00000000E+00  0.00000000E+00  0.00000000E+00
  0.00000000E+00  0.00000000E+00  0.00000000E+00
  0.00000000E+00  0.00000000E+00  0.00000000E+00
  0.00000000E+00  0.00000000E+00  0.00000000E+00
