Au Pd                                   
   1.00000000000000     
    11.0025815152626798    0.0000000000000000    0.0000000000000000
     5.5012907576313399    9.5285150994265617    0.0000000000000000
     0.0000000000000000    0.0000000000000000   24.4917850942952882
   Au   Pd
    24    24
Selective dynamics
Direct
  0.0833333333333357  0.0833333333333357  0.4083001692812189   F   F   F
  0.9154005128223598  0.9157267073107159  0.5074909951409231   T   T   T
  0.0833333333333357  0.3333333333333357  0.4083001692812189   F   F   F
  0.0005860145445333  0.0026275617500995  0.6119426561269995   T   T   T
  0.1658856386103765  0.1687233511537341  0.5093065888981451   T   T   T
  0.9136570784152956  0.1708102289959207  0.5094627028006672   T   T   T
  0.7530630759501665  0.7489461929681304  0.6084405484463994   T   T   T
  0.2504513258470229  0.7497583308495109  0.6113950064222430   T   T   T
  0.1668781049617364  0.6676928952478115  0.5074652745429221   T   T   T
  0.2499116369920069  0.4981478850825865  0.6116737542458228   T   T   T
  0.3333333333333357  0.8333333333333357  0.4083001692812189   F   F   F
  0.4181461271789086  0.1673899719071494  0.5061178713133787   T   T   T
  0.0833333333333357  0.5833333333333357  0.4083001692812189   F   F   F
  0.5833333333333357  0.3333333333333357  0.4083001692812189   F   F   F
  0.4171044390896743  0.4181390497279374  0.5075751577227282   T   T   T
  0.5833333333333357  0.5833333333333357  0.4083001692812189   F   F   F
  0.5833333333333357  0.8333333333333357  0.4083001692812189   F   F   F
  0.4171758124782932  0.9157781984983069  0.5093698399167353   T   T   T
  0.5002212612970689  0.7484994652850483  0.6108947914096347   T   T   T
  0.8333333333333357  0.0833333333333357  0.4083001692812189   F   F   F
  0.7497616378089393  0.0023716765710053  0.6098916759893348   T   T   T
  0.8333333333333357  0.5833333333333357  0.4083001692812189   F   F   F
  0.7524999288920020  0.4961564817228457  0.6089593917468916   T   T   T
  0.4980442195349555  0.0037972895847323  0.6116532551047563   T   T   T
  0.0833333333333357  0.8333333333333357  0.4083001692812189   F   F   F
  0.0009959856383822  0.7493969476012495  0.6055199595038118   T   T   T
  0.3333333333333357  0.0833333333333357  0.4083001692812189   F   F   F
  0.5833333333333357  0.0833333333333357  0.4083001692812189   F   F   F
  0.3333333333333357  0.5833333333333357  0.4083001692812189   F   F   F
  0.1661398042427236  0.9166138219429035  0.5095326555481943   T   T   T
  0.2499443630018153  0.0010206130480260  0.6068392028740892   T   T   T
  0.3333333333333357  0.3333333333333357  0.4083001692812189   F   F   F
  0.4999907529735403  0.2518398060542125  0.6049120029844079   T   T   T
  0.6676903261845996  0.9158271024186689  0.5074222992611628   T   T   T
  0.0015421453958464  0.4994886830055625  0.6042022090571555   T   T   T
  0.9150763361704181  0.4198103020231233  0.5085811425268347   T   T   T
  0.2493113720024185  0.2509900102218111  0.6054303446275670   T   T   T
  0.9144925452988253  0.6665320631753207  0.5077402419275442   T   T   T
  0.0021766076929675  0.2510697172805934  0.6062956880951477   T   T   T
  0.6666673923940363  0.1668424754665788  0.5078819659466127   T   T   T
  0.8333333333333357  0.3333333333333357  0.4083001692812189   F   F   F
  0.6669790136599320  0.4196193340038394  0.5081401648914343   T   T   T
  0.7485832985539626  0.2514753751124053  0.6054338376973235   T   T   T
  0.6674526409913579  0.6657419920459121  0.5093558478845234   T   T   T
  0.8333333333333357  0.8333333333333357  0.4083001692812189   F   F   F
  0.1642815387730951  0.4191960747798500  0.5083035301713188   T   T   T
  0.4173902356877025  0.6671870840669588  0.5087880948889344   T   T   T
  0.5010142687939837  0.4979526211868857  0.6052950073483584   T   T   T
 
  0.00000000E+00  0.00000000E+00  0.00000000E+00
  0.00000000E+00  0.00000000E+00  0.00000000E+00
  0.00000000E+00  0.00000000E+00  0.00000000E+00
  0.00000000E+00  0.00000000E+00  0.00000000E+00
  0.00000000E+00  0.00000000E+00  0.00000000E+00
  0.00000000E+00  0.00000000E+00  0.00000000E+00
  0.00000000E+00  0.00000000E+00  0.00000000E+00
  0.00000000E+00  0.00000000E+00  0.00000000E+00
  0.00000000E+00  0.00000000E+00  0.00000000E+00
  0.00000000E+00  0.00000000E+00  0.00000000E+00
  0.00000000E+00  0.00000000E+00  0.00000000E+00
  0.00000000E+00  0.00000000E+00  0.00000000E+00
  0.00000000E+00  0.00000000E+00  0.00000000E+00
  0.00000000E+00  0.00000000E+00  0.00000000E+00
  0.00000000E+00  0.00000000E+00  0.00000000E+00
  0.00000000E+00  0.00000000E+00  0.00000000E+00
  0.00000000E+00  0.00000000E+00  0.00000000E+00
  0.00000000E+00  0.00000000E+00  0.00000000E+00
  0.00000000E+00  0.00000000E+00  0.00000000E+00
  0.00000000E+00  0.00000000E+00  0.00000000E+00
  0.00000000E+00  0.00000000E+00  0.00000000E+00
  0.00000000E+00  0.00000000E+00  0.00000000E+00
  0.00000000E+00  0.00000000E+00  0.00000000E+00
  0.00000000E+00  0.00000000E+00  0.00000000E+00
  0.00000000E+00  0.00000000E+00  0.00000000E+00
  0.00000000E+00  0.00000000E+00  0.00000000E+00
  0.00000000E+00  0.00000000E+00  0.00000000E+00
  0.00000000E+00  0.00000000E+00  0.00000000E+00
  0.00000000E+00  0.00000000E+00  0.00000000E+00
  0.00000000E+00  0.00000000E+00  0.00000000E+00
  0.00000000E+00  0.00000000E+00  0.00000000E+00
  0.00000000E+00  0.00000000E+00  0.00000000E+00
  0.00000000E+00  0.00000000E+00  0.00000000E+00
  0.00000000E+00  0.00000000E+00  0.00000000E+00
  0.00000000E+00  0.00000000E+00  0.00000000E+00
  0.00000000E+00  0.00000000E+00  0.00000000E+00
  0.00000000E+00  0.00000000E+00  0.00000000E+00
  0.00000000E+00  0.00000000E+00  0.00000000E+00
  0.00000000E+00  0.00000000E+00  0.00000000E+00
  0.00000000E+00  0.00000000E+00  0.00000000E+00
  0.00000000E+00  0.00000000E+00  0.00000000E+00
  0.00000000E+00  0.00000000E+00  0.00000000E+00
  0.00000000E+00  0.00000000E+00  0.00000000E+00
  0.00000000E+00  0.00000000E+00  0.00000000E+00
  0.00000000E+00  0.00000000E+00  0.00000000E+00
  0.00000000E+00  0.00000000E+00  0.00000000E+00
  0.00000000E+00  0.00000000E+00  0.00000000E+00
  0.00000000E+00  0.00000000E+00  0.00000000E+00
