Au Pd                                   
   1.00000000000000     
    11.0025815152626798    0.0000000000000000    0.0000000000000000
     5.5012907576313399    9.5285150994265617    0.0000000000000000
     0.0000000000000000    0.0000000000000000   24.4917850942952882
   Au   Pd
    24    24
Direct
  0.2495085190700735  0.7524949830850323  0.6031087753481293
  0.2511748879899651  0.4952858478765791  0.6050128275759363
  0.3337241527479023  0.8339032209549201  0.3957712527911265
  0.1639668698238880  0.9190433266095026  0.4989167943100540
  0.6673353857943854  0.9177714807030182  0.5023191176833701
  0.5849844891475110  0.0796841496712723  0.3946792664798492
  0.5854083137330829  0.3333279419557337  0.3960698433857537
  0.1653638401720099  0.6674317818623411  0.5012436147504298
  0.5871199049661732  0.5829744559660502  0.3977117063752558
  0.4150218100587822  0.9185543178384957  0.4998651416598814
  0.5001136894740649  0.7514029423921934  0.6047240471851083
  0.8355354546265229  0.0826689615103668  0.3972354628124350
  0.6662352268106210  0.1684801036208071  0.4993526060886841
  0.7492775960710593  0.0036140415997832  0.6055209166895091
  0.6665197737289573  0.6658251225398458  0.5019430616993700
  0.5034924222636679  0.4964906284122590  0.5991827869972510
  0.3322692765870967  0.5832571002156887  0.3979303880011358
  0.7510099287812843  0.7479446326428812  0.6084450963888600
  0.1674375977854768  0.4155275631886864  0.5009620140349992
  0.3300406884553292  0.3342671645489004  0.3970476791491553
  0.3308529707306495  0.0844132572031653  0.3949345382275561
 -0.0001944556243731  0.7501438238111872  0.6058870575766662
  0.0805507967659565  0.8330410405592933  0.3957457274195239
  0.9163279890723391  0.4150956690762191  0.5010427554526055
  0.8338338277595797  0.8311442339405919  0.4069176234336968
  0.7528818548324498  0.4972146695064585  0.5986038970142125
  0.9159207458139119  0.1669936574016868  0.4984951073425866
  0.8350770668028444  0.5839221653280888  0.4052933914879471
  0.7528551649823927  0.2494246073581051  0.5952498403127503
  0.6649333195852040  0.4173072996061531  0.4989400745756264
  0.8361832819476421  0.3333460806176508  0.4030929192910327
 -0.0002726005405509  0.0032528501523802  0.5962853802753886
  0.0798058566521276  0.3347429844379492  0.4028597241680533
  0.0008221204262043  0.2491065124275608  0.5962198754403891
  0.9160714151184064  0.6679839689062621  0.5046207674729869
  0.5850991709548442  0.8323323021703596  0.4035952907624069
  0.2518192538085692  0.2466320494251772  0.5953745242327352
  0.4166777352134307  0.6655146413628383  0.4998164697354270
  0.0009695191799631  0.4959345095151956  0.5995996561374866
  0.4998446172755343  0.2484177859830049  0.5948322545731053
  0.4165424769739718  0.4175524947135252  0.4990072943261323
  0.4981501615195284  0.0026641404469596  0.5975569412681145
  0.4155795389337631  0.1677098637151502  0.4969839600851284
  0.9160363133395761  0.9177215140815157  0.5017809844790423
  0.1664984887669024  0.1666962892517460  0.4980423201812881
  0.2486319019581501  0.0032005196163338  0.5960744559968257
  0.0806725922190620  0.5836669918766120  0.4050301926317651
  0.0822890474440652  0.0848743103144729  0.4010745766932266
 
  0.00000000E+00  0.00000000E+00  0.00000000E+00
  0.00000000E+00  0.00000000E+00  0.00000000E+00
  0.00000000E+00  0.00000000E+00  0.00000000E+00
  0.00000000E+00  0.00000000E+00  0.00000000E+00
  0.00000000E+00  0.00000000E+00  0.00000000E+00
  0.00000000E+00  0.00000000E+00  0.00000000E+00
  0.00000000E+00  0.00000000E+00  0.00000000E+00
  0.00000000E+00  0.00000000E+00  0.00000000E+00
  0.00000000E+00  0.00000000E+00  0.00000000E+00
  0.00000000E+00  0.00000000E+00  0.00000000E+00
  0.00000000E+00  0.00000000E+00  0.00000000E+00
  0.00000000E+00  0.00000000E+00  0.00000000E+00
  0.00000000E+00  0.00000000E+00  0.00000000E+00
  0.00000000E+00  0.00000000E+00  0.00000000E+00
  0.00000000E+00  0.00000000E+00  0.00000000E+00
  0.00000000E+00  0.00000000E+00  0.00000000E+00
  0.00000000E+00  0.00000000E+00  0.00000000E+00
  0.00000000E+00  0.00000000E+00  0.00000000E+00
  0.00000000E+00  0.00000000E+00  0.00000000E+00
  0.00000000E+00  0.00000000E+00  0.00000000E+00
  0.00000000E+00  0.00000000E+00  0.00000000E+00
  0.00000000E+00  0.00000000E+00  0.00000000E+00
  0.00000000E+00  0.00000000E+00  0.00000000E+00
  0.00000000E+00  0.00000000E+00  0.00000000E+00
  0.00000000E+00  0.00000000E+00  0.00000000E+00
  0.00000000E+00  0.00000000E+00  0.00000000E+00
  0.00000000E+00  0.00000000E+00  0.00000000E+00
  0.00000000E+00  0.00000000E+00  0.00000000E+00
  0.00000000E+00  0.00000000E+00  0.00000000E+00
  0.00000000E+00  0.00000000E+00  0.00000000E+00
  0.00000000E+00  0.00000000E+00  0.00000000E+00
  0.00000000E+00  0.00000000E+00  0.00000000E+00
  0.00000000E+00  0.00000000E+00  0.00000000E+00
  0.00000000E+00  0.00000000E+00  0.00000000E+00
  0.00000000E+00  0.00000000E+00  0.00000000E+00
  0.00000000E+00  0.00000000E+00  0.00000000E+00
  0.00000000E+00  0.00000000E+00  0.00000000E+00
  0.00000000E+00  0.00000000E+00  0.00000000E+00
  0.00000000E+00  0.00000000E+00  0.00000000E+00
  0.00000000E+00  0.00000000E+00  0.00000000E+00
  0.00000000E+00  0.00000000E+00  0.00000000E+00
  0.00000000E+00  0.00000000E+00  0.00000000E+00
  0.00000000E+00  0.00000000E+00  0.00000000E+00
  0.00000000E+00  0.00000000E+00  0.00000000E+00
  0.00000000E+00  0.00000000E+00  0.00000000E+00
  0.00000000E+00  0.00000000E+00  0.00000000E+00
  0.00000000E+00  0.00000000E+00  0.00000000E+00
  0.00000000E+00  0.00000000E+00  0.00000000E+00
