Au  O Pd                                
   1.00000000000000     
    11.0025815152626798    0.0000000000000000    0.0000000000000000
     5.5012907576313399    9.5285150994265617    0.0000000000000000
     0.0000000000000000    0.0000000000000000   26.1917850942952910
   Au   O    Pd
    24     8    24
Selective dynamics
Direct
  0.2390328937234172  0.5161976389421575  0.5689072176067810   T   T   T
  0.2427574081652895  0.7539695324133058  0.5684533203277760   T   T   T
  0.2410933748416190  0.2602360526536517  0.5611582196801189   T   T   T
  0.9222228836171352  0.1645301272116255  0.4785142964976151   T   T   T
 -0.0158025035015237  0.0242523961326331  0.5774582280432288   T   T   T
  0.6711840993144044  0.9183651877400296  0.4721447815967567   T   T   T
  0.8333333333333357  0.5833333333333357  0.3817991009012260   F   F   F
  0.9156891895193304  0.4161128943146463  0.4818224189828311   T   T   T
  0.3333333333333357  0.8333333333333357  0.3817991009012260   F   F   F
  0.8333333333333357  0.3333333333333357  0.3817991009012260   F   F   F
  0.8333333333333357  0.0833333333333357  0.3817991009012260   F   F   F
  0.4999598445257584  0.7662112598274643  0.5628070536868106   T   T   T
  0.9186012258838070  0.6698022345129796  0.4783339760882644   T   T   T
  0.0833333333333357  0.8333333333333357  0.3817991009012260   F   F   F
  0.1690200507035731  0.6693412412978945  0.4762418122001034   T   T   T
  0.4974331610635657  0.5021076914778713  0.5607965850413511   T   T   T
  0.5833333333333357  0.5833333333333357  0.3817991009012260   F   F   F
  0.5125899028126473  0.2486553225895222  0.5757214720273442   T   T   T
  0.5833333333333357  0.3333333333333357  0.3817991009012260   F   F   F
  0.4995797528580058  0.0110601136186827  0.5627931790565485   T   T   T
  0.4191212244358004  0.1680200596017305  0.4712589992971669   T   T   T
  0.3333333333333357  0.3333333333333357  0.3817991009012260   F   F   F
  0.1657223842463769  0.4193660602890754  0.4724744338563062   T   T   T
  0.5833333333333357  0.8333333333333357  0.3817991009012260   F   F   F
  0.2065791142906666  0.1426352488246946  0.6240056901867397   T   T   T
  0.0829725552750971  0.8429689858062671  0.6266758837491238   T   T   T
  0.0015530702656775  0.4285878273718613  0.6376329133746119   T   T   T
  0.3323705407117530  0.3474732389417076  0.6196555025085055   T   T   T
  0.8005132644195673  0.8549494391349345  0.6184187528181968   T   T   T
  0.5768646147279494  0.5939633269395564  0.6141466840391583   T   T   T
  0.8053316154288434  0.3424740358721440  0.6200108872080670   T   T   T
  0.3263883388126895  0.8634912950467500  0.6100699573471716   T   T   T
  0.4164773965291395  0.6694641350490400  0.4726420306382533   T   T   T
  0.0833333333333357  0.0833333333333357  0.3817991009012260   F   F   F
  0.3333333333333357  0.0833333333333357  0.3817991009012260   F   F   F
  0.4212880727227711  0.4167425035672739  0.4752671144103987   T   T   T
  0.2305327791168143  0.0248234157610461  0.5615767443475920   T   T   T
  0.5833333333333357  0.0833333333333357  0.3817991009012260   F   F   F
  0.7497472302793917  0.7549518384285986  0.5668405942859546   T   T   T
  0.1695397095251276  0.9187505646571552  0.4753093813443378   T   T   T
  0.1650321782699966  0.1693231797355313  0.4718035056501220   T   T   T
  0.4149453941375236  0.9191943567702163  0.4733882972799850   T   T   T
 -0.0049368548063190  0.5024065479073414  0.5710248374581116   T   T   T
  0.0833333333333357  0.5833333333333357  0.3817991009012260   F   F   F
  0.6693256355081552  0.1694047670420627  0.4797369541410365   T   T   T
  0.7504174331179558  0.0062013819645151  0.5662231048273941   T   T   T
  0.6684986517274975  0.4185556831148617  0.4731924553319257   T   T   T
  0.7501245479389396  0.2581068748877298  0.5641155715710023   T   T   T
  0.0062174946238869  0.2507306255808338  0.6210603430092847   T   T   T
  0.0833333333333357  0.3333333333333357  0.3817991009012260   F   F   F
  0.6673184021262748  0.6680456564578283  0.4789777470997228   T   T   T
  0.7538749445832615  0.5070569379793022  0.5726336022866956   T   T   T
  0.8333333333333357  0.8333333333333357  0.3817991009012260   F   F   F
  0.3333333333333357  0.5833333333333357  0.3817991009012260   F   F   F
 -0.0052879404350292  0.7434416991929826  0.5961928225854061   T   T   T
  0.9199280926525771  0.9190368390371082  0.4769665071141157   T   T   T
 
  0.00000000E+00  0.00000000E+00  0.00000000E+00
  0.00000000E+00  0.00000000E+00  0.00000000E+00
  0.00000000E+00  0.00000000E+00  0.00000000E+00
  0.00000000E+00  0.00000000E+00  0.00000000E+00
  0.00000000E+00  0.00000000E+00  0.00000000E+00
  0.00000000E+00  0.00000000E+00  0.00000000E+00
  0.00000000E+00  0.00000000E+00  0.00000000E+00
  0.00000000E+00  0.00000000E+00  0.00000000E+00
  0.00000000E+00  0.00000000E+00  0.00000000E+00
  0.00000000E+00  0.00000000E+00  0.00000000E+00
  0.00000000E+00  0.00000000E+00  0.00000000E+00
  0.00000000E+00  0.00000000E+00  0.00000000E+00
  0.00000000E+00  0.00000000E+00  0.00000000E+00
  0.00000000E+00  0.00000000E+00  0.00000000E+00
  0.00000000E+00  0.00000000E+00  0.00000000E+00
  0.00000000E+00  0.00000000E+00  0.00000000E+00
  0.00000000E+00  0.00000000E+00  0.00000000E+00
  0.00000000E+00  0.00000000E+00  0.00000000E+00
  0.00000000E+00  0.00000000E+00  0.00000000E+00
  0.00000000E+00  0.00000000E+00  0.00000000E+00
  0.00000000E+00  0.00000000E+00  0.00000000E+00
  0.00000000E+00  0.00000000E+00  0.00000000E+00
  0.00000000E+00  0.00000000E+00  0.00000000E+00
  0.00000000E+00  0.00000000E+00  0.00000000E+00
  0.00000000E+00  0.00000000E+00  0.00000000E+00
  0.00000000E+00  0.00000000E+00  0.00000000E+00
  0.00000000E+00  0.00000000E+00  0.00000000E+00
  0.00000000E+00  0.00000000E+00  0.00000000E+00
  0.00000000E+00  0.00000000E+00  0.00000000E+00
  0.00000000E+00  0.00000000E+00  0.00000000E+00
  0.00000000E+00  0.00000000E+00  0.00000000E+00
  0.00000000E+00  0.00000000E+00  0.00000000E+00
  0.00000000E+00  0.00000000E+00  0.00000000E+00
  0.00000000E+00  0.00000000E+00  0.00000000E+00
  0.00000000E+00  0.00000000E+00  0.00000000E+00
  0.00000000E+00  0.00000000E+00  0.00000000E+00
  0.00000000E+00  0.00000000E+00  0.00000000E+00
  0.00000000E+00  0.00000000E+00  0.00000000E+00
  0.00000000E+00  0.00000000E+00  0.00000000E+00
  0.00000000E+00  0.00000000E+00  0.00000000E+00
  0.00000000E+00  0.00000000E+00  0.00000000E+00
  0.00000000E+00  0.00000000E+00  0.00000000E+00
  0.00000000E+00  0.00000000E+00  0.00000000E+00
  0.00000000E+00  0.00000000E+00  0.00000000E+00
  0.00000000E+00  0.00000000E+00  0.00000000E+00
  0.00000000E+00  0.00000000E+00  0.00000000E+00
  0.00000000E+00  0.00000000E+00  0.00000000E+00
  0.00000000E+00  0.00000000E+00  0.00000000E+00
  0.00000000E+00  0.00000000E+00  0.00000000E+00
  0.00000000E+00  0.00000000E+00  0.00000000E+00
  0.00000000E+00  0.00000000E+00  0.00000000E+00
  0.00000000E+00  0.00000000E+00  0.00000000E+00
  0.00000000E+00  0.00000000E+00  0.00000000E+00
  0.00000000E+00  0.00000000E+00  0.00000000E+00
  0.00000000E+00  0.00000000E+00  0.00000000E+00
  0.00000000E+00  0.00000000E+00  0.00000000E+00
