Au  O Pd                                
   1.00000000000000     
    11.0025815152626798    0.0000000000000000    0.0000000000000000
     5.5012907576313399    9.5285150994265617    0.0000000000000000
     0.0000000000000000    0.0000000000000000   26.1917850942952910
   Au   O    Pd
    24     8    24
Selective dynamics
Direct
  0.0833333333333357  0.0833333333333357  0.3817991009012260   F   F   F
  0.3333333333333357  0.8333333333333357  0.3817991009012260   F   F   F
  0.5011757965175867  0.7520491142400106  0.5625953770981967   T   T   T
  0.9143746205524462  0.1610205312118447  0.4799206427650033   T   T   T
  0.7435707188667692  0.5010832427804638  0.5679246548255553   T   T   T
  0.6663098464188821  0.4142739759488938  0.4798270391736096   T   T   T
  0.9166374595375031  0.4165888638330653  0.4761379582271613   T   T   T
 -0.0319558904743732  0.2373649144690502  0.5715262244116871   T   T   T
  0.8333333333333357  0.3333333333333357  0.3817991009012260   F   F   F
  0.0833333333333357  0.5833333333333357  0.3817991009012260   F   F   F
  0.9147444587264879  0.6665529743313265  0.4737248834166624   T   T   T
  0.9138512897717120  0.9172216565637349  0.4722041398320722   T   T   T
  0.7729370659985482 -0.0586619009591221  0.6264246136167712   T   T   T
  0.5833333333333357  0.5833333333333357  0.3817991009012260   F   F   F
  0.5384385071017272  0.2421207593523507  0.5710340177034079   T   T   T
  0.4145172682848150  0.4165878376913507  0.4797169584591577   T   T   T
  0.2321295432171273  0.0141730894251269  0.5633509584169550   T   T   T
  0.5833333333333357  0.3333333333333357  0.3817991009012260   F   F   F
  0.3333333333333357  0.3333333333333357  0.3817991009012260   F   F   F
  0.4942150082196089  0.0035727541565940  0.5629546208598164   T   T   T
  0.4111347496941659  0.1688556720722259  0.4753230568693376   T   T   T
  0.3333333333333357  0.5833333333333357  0.3817991009012260   F   F   F
  0.5833333333333357  0.0833333333333357  0.3817991009012260   F   F   F
  0.2383043609532210  0.7557656819201085  0.5667595532507822   T   T   T
  0.3226899840066136  0.3487159852752301  0.6098655203578111   T   T   T
 -0.0178638340534202  0.8231116329757313  0.6323423963271017   T   T   T
  0.0778343404220315  0.3304924805710786  0.6141107342335529   T   T   T
  0.3278950633224497  0.8434543551352284  0.6160922255726324   T   T   T
  0.8235796661512039  0.6176537629581703  0.6156260230584291   T   T   T
  0.5698210591278636  0.0719010803123474  0.6241807806648909   T   T   T
  0.5752451686407077  0.4778043311072829  0.6354331881329421   T   T   T
  0.8423481934068733  0.1028935655185064  0.6490590969248331   T   T   T
  0.5833333333333357  0.8333333333333357  0.3817991009012260   F   F   F
  0.1616054970626095  0.1683445093533936  0.4762297070142458   T   T   T
  0.3333333333333357  0.0833333333333357  0.3817991009012260   F   F   F
 -0.0057445859988111  0.7601478998127784  0.5599831733004130   T   T   T
  0.1668529944365311  0.6678395892583573  0.4756584780104381   T   T   T
  0.4142992044465206  0.6672193929391103  0.4741691512992532   T   T   T
  0.4918101659049507  0.5064481392785359  0.5672714802969210   T   T   T
  0.7450324502481138  0.7644890728869528  0.5621548812809690   T   T   T
  0.2384801998586125  0.5124876070528241  0.5669714202398056   T   T   T
  0.0833333333333357  0.8333333333333357  0.3817991009012260   F   F   F
  0.4141329653164277  0.9188841481320803  0.4722880769742275   T   T   T
  0.8333333333333357  0.0833333333333357  0.3817991009012260   F   F   F
  0.6663494470300345  0.1630322534688119  0.4772399491800308   T   T   T
 -0.0003778918012849  0.5101567600770925  0.5764076345154415   T   T   T
  0.0833333333333357  0.3333333333333357  0.3817991009012260   F   F   F
  0.7227036796188816  0.2915321058530804  0.6293887375392013   T   T   T
  0.8333333333333357  0.5833333333333357  0.3817991009012260   F   F   F
  0.6631990535644833  0.6696404998869664  0.4736825579326470   T   T   T
  0.0127034610282210 -0.0136281186337181  0.6084342852684385   T   T   T
  0.8333333333333357  0.8333333333333357  0.3817991009012260   F   F   F
  0.6642791571365586  0.9178604923767815  0.4736267243411311   T   T   T
  0.1651430481958311  0.9160819554596757  0.4729730376271546   T   T   T
  0.1629676192876410  0.4182636802392453  0.4756515915418129   T   T   T
  0.2448736811595218  0.2513737980653574  0.5679423101621476   T   T   T
 
  0.00000000E+00  0.00000000E+00  0.00000000E+00
  0.00000000E+00  0.00000000E+00  0.00000000E+00
  0.00000000E+00  0.00000000E+00  0.00000000E+00
  0.00000000E+00  0.00000000E+00  0.00000000E+00
  0.00000000E+00  0.00000000E+00  0.00000000E+00
  0.00000000E+00  0.00000000E+00  0.00000000E+00
  0.00000000E+00  0.00000000E+00  0.00000000E+00
  0.00000000E+00  0.00000000E+00  0.00000000E+00
  0.00000000E+00  0.00000000E+00  0.00000000E+00
  0.00000000E+00  0.00000000E+00  0.00000000E+00
  0.00000000E+00  0.00000000E+00  0.00000000E+00
  0.00000000E+00  0.00000000E+00  0.00000000E+00
  0.00000000E+00  0.00000000E+00  0.00000000E+00
  0.00000000E+00  0.00000000E+00  0.00000000E+00
  0.00000000E+00  0.00000000E+00  0.00000000E+00
  0.00000000E+00  0.00000000E+00  0.00000000E+00
  0.00000000E+00  0.00000000E+00  0.00000000E+00
  0.00000000E+00  0.00000000E+00  0.00000000E+00
  0.00000000E+00  0.00000000E+00  0.00000000E+00
  0.00000000E+00  0.00000000E+00  0.00000000E+00
  0.00000000E+00  0.00000000E+00  0.00000000E+00
  0.00000000E+00  0.00000000E+00  0.00000000E+00
  0.00000000E+00  0.00000000E+00  0.00000000E+00
  0.00000000E+00  0.00000000E+00  0.00000000E+00
  0.00000000E+00  0.00000000E+00  0.00000000E+00
  0.00000000E+00  0.00000000E+00  0.00000000E+00
  0.00000000E+00  0.00000000E+00  0.00000000E+00
  0.00000000E+00  0.00000000E+00  0.00000000E+00
  0.00000000E+00  0.00000000E+00  0.00000000E+00
  0.00000000E+00  0.00000000E+00  0.00000000E+00
  0.00000000E+00  0.00000000E+00  0.00000000E+00
  0.00000000E+00  0.00000000E+00  0.00000000E+00
  0.00000000E+00  0.00000000E+00  0.00000000E+00
  0.00000000E+00  0.00000000E+00  0.00000000E+00
  0.00000000E+00  0.00000000E+00  0.00000000E+00
  0.00000000E+00  0.00000000E+00  0.00000000E+00
  0.00000000E+00  0.00000000E+00  0.00000000E+00
  0.00000000E+00  0.00000000E+00  0.00000000E+00
  0.00000000E+00  0.00000000E+00  0.00000000E+00
  0.00000000E+00  0.00000000E+00  0.00000000E+00
  0.00000000E+00  0.00000000E+00  0.00000000E+00
  0.00000000E+00  0.00000000E+00  0.00000000E+00
  0.00000000E+00  0.00000000E+00  0.00000000E+00
  0.00000000E+00  0.00000000E+00  0.00000000E+00
  0.00000000E+00  0.00000000E+00  0.00000000E+00
  0.00000000E+00  0.00000000E+00  0.00000000E+00
  0.00000000E+00  0.00000000E+00  0.00000000E+00
  0.00000000E+00  0.00000000E+00  0.00000000E+00
  0.00000000E+00  0.00000000E+00  0.00000000E+00
  0.00000000E+00  0.00000000E+00  0.00000000E+00
  0.00000000E+00  0.00000000E+00  0.00000000E+00
  0.00000000E+00  0.00000000E+00  0.00000000E+00
  0.00000000E+00  0.00000000E+00  0.00000000E+00
  0.00000000E+00  0.00000000E+00  0.00000000E+00
  0.00000000E+00  0.00000000E+00  0.00000000E+00
  0.00000000E+00  0.00000000E+00  0.00000000E+00
