Au Pd                                   
   1.00000000000000     
    11.0025815152626798    0.0000000000000000    0.0000000000000000
     5.5012907576313399    9.5285150994265617    0.0000000000000000
     0.0000000000000000    0.0000000000000000   24.4917850942952882
   Au   Pd
    24    24
Direct
  0.6637024195846933  0.4204418188511304  0.5004159418297079
  0.5835862806595189  0.8332243643232019  0.3959160514245486
  0.5808547983575773  0.3353264518297714  0.3970677368637222
  0.4140441040958188  0.9179137362906477  0.5005847965342245
  0.5015751602248849  0.7499470357907594  0.6027842399234743
  0.8343895135331298  0.0820494830932585  0.3932579293823843
  0.6642165147237318  0.9178831972135714  0.4991928374952412
  0.6637287949582957  0.1688108144732947  0.4996199716192870
  0.3309130094925327  0.8313702828620657  0.3982753323390508
  0.2475269552804636  0.5018975363136463  0.6031296780360320
  0.1697827226224378  0.6658382336031864  0.5001290269967530
  0.2501006623014893  0.2478031725638015  0.6012655751104949
  0.5026691263696216  0.2463698272816923  0.6031959144255077
  0.5016835892965558  0.4994224111765354  0.6032836738514944
  0.9172458325852645  0.6657885546144359  0.4986230900103770
  0.3332296097918117  0.0849220020032335  0.3986341245373886
  0.9194119269500770  0.1665226794514003  0.5003469703059077
  0.0012576091478629 -0.0034839511996464  0.6047094722725308
  0.0835243558215077  0.3327369693580152  0.3983188386689058
  0.9178484351329128  0.9174343764218240  0.4994731904837973
  0.9174436465977613  0.4174544579997610  0.5000583653187434
 -0.0006205196489841  0.2502379430436653  0.6050823421529424
  0.8315424372985744  0.5833574330753566  0.3945966800723589
  0.0854048897297115  0.5844377880753460  0.3950901861816930
  0.7516185430769644  0.2478718588872161  0.5979762145929206
  0.7514945098939708  0.4998611784050156  0.5978493115745336
  0.7510537604337534 -0.0030306330895148  0.5976111339602150
  0.6651119600353916  0.6682157763409033  0.4998740349915971
  0.8325765081671834  0.3333158327213628  0.4018822833967370
  0.8329321634435214  0.8342055602746741  0.4006031531120117
  0.0820724727031546  0.0831793725571066  0.4034603730155216
  0.2499068895143275  0.7508333036851408  0.5975710900870688
  0.5821308629135804  0.5832835740664979  0.4035107201068642
  0.4156456776905428  0.4175716531503164  0.5021656930465055
  0.5020724159294880 -0.0023309809676621  0.5976015752102584
  0.4137147416515716  0.1699025987200052  0.5012147748770884
  0.5833075462510050  0.0842491070207881  0.4016625552440181
  0.1677196115025625  0.9176299228361463  0.5002174454749045
  0.3337793136403607  0.5823837528229961  0.4045422868633693
  0.1691140239869021  0.4150336824646336  0.5005476430896716
  0.3341243321302413  0.3335992572226591  0.4056902944267356
  0.2501699188890070 -0.0017136701647167  0.5973816432133635
  0.1675071730112973  0.1675925281516432  0.5004310099647321
 -0.0005437625307389  0.7487819938578127  0.5974675857213824
  0.0825677491346899  0.8339654082279229  0.4021970994604233
 -0.0016934511548608  0.5013291175726878  0.5971816763225454
  0.4165048922015385  0.6679572690163480  0.5015685483985000
  0.7520502725772943  0.7486059177100637  0.5967398880124656
 
  0.00000000E+00  0.00000000E+00  0.00000000E+00
  0.00000000E+00  0.00000000E+00  0.00000000E+00
  0.00000000E+00  0.00000000E+00  0.00000000E+00
  0.00000000E+00  0.00000000E+00  0.00000000E+00
  0.00000000E+00  0.00000000E+00  0.00000000E+00
  0.00000000E+00  0.00000000E+00  0.00000000E+00
  0.00000000E+00  0.00000000E+00  0.00000000E+00
  0.00000000E+00  0.00000000E+00  0.00000000E+00
  0.00000000E+00  0.00000000E+00  0.00000000E+00
  0.00000000E+00  0.00000000E+00  0.00000000E+00
  0.00000000E+00  0.00000000E+00  0.00000000E+00
  0.00000000E+00  0.00000000E+00  0.00000000E+00
  0.00000000E+00  0.00000000E+00  0.00000000E+00
  0.00000000E+00  0.00000000E+00  0.00000000E+00
  0.00000000E+00  0.00000000E+00  0.00000000E+00
  0.00000000E+00  0.00000000E+00  0.00000000E+00
  0.00000000E+00  0.00000000E+00  0.00000000E+00
  0.00000000E+00  0.00000000E+00  0.00000000E+00
  0.00000000E+00  0.00000000E+00  0.00000000E+00
  0.00000000E+00  0.00000000E+00  0.00000000E+00
  0.00000000E+00  0.00000000E+00  0.00000000E+00
  0.00000000E+00  0.00000000E+00  0.00000000E+00
  0.00000000E+00  0.00000000E+00  0.00000000E+00
  0.00000000E+00  0.00000000E+00  0.00000000E+00
  0.00000000E+00  0.00000000E+00  0.00000000E+00
  0.00000000E+00  0.00000000E+00  0.00000000E+00
  0.00000000E+00  0.00000000E+00  0.00000000E+00
  0.00000000E+00  0.00000000E+00  0.00000000E+00
  0.00000000E+00  0.00000000E+00  0.00000000E+00
  0.00000000E+00  0.00000000E+00  0.00000000E+00
  0.00000000E+00  0.00000000E+00  0.00000000E+00
  0.00000000E+00  0.00000000E+00  0.00000000E+00
  0.00000000E+00  0.00000000E+00  0.00000000E+00
  0.00000000E+00  0.00000000E+00  0.00000000E+00
  0.00000000E+00  0.00000000E+00  0.00000000E+00
  0.00000000E+00  0.00000000E+00  0.00000000E+00
  0.00000000E+00  0.00000000E+00  0.00000000E+00
  0.00000000E+00  0.00000000E+00  0.00000000E+00
  0.00000000E+00  0.00000000E+00  0.00000000E+00
  0.00000000E+00  0.00000000E+00  0.00000000E+00
  0.00000000E+00  0.00000000E+00  0.00000000E+00
  0.00000000E+00  0.00000000E+00  0.00000000E+00
  0.00000000E+00  0.00000000E+00  0.00000000E+00
  0.00000000E+00  0.00000000E+00  0.00000000E+00
  0.00000000E+00  0.00000000E+00  0.00000000E+00
  0.00000000E+00  0.00000000E+00  0.00000000E+00
  0.00000000E+00  0.00000000E+00  0.00000000E+00
  0.00000000E+00  0.00000000E+00  0.00000000E+00
