Au Pd                                   
   1.00000000000000     
    11.0025815152626798    0.0000000000000000    0.0000000000000000
     5.5012907576313399    9.5285150994265617    0.0000000000000000
     0.0000000000000000    0.0000000000000000   24.4917850942952882
   Au   Pd
    24    24
Direct
  0.0857477510426517  0.0833313427671339  0.3940183940000335
  0.5830347796942263  0.5845070339827277  0.3973990421904006
  0.4998912577031849  0.2477870537030240  0.6035696403630816
  0.4166073111319291  0.4172894182511408  0.5005111451482573
  0.5828229923940184  0.3339725525696195  0.3983516722260821
  0.4172037238004873  0.1651921356133219  0.4998921756481235
  0.5822004052931750  0.0821228541792210  0.3958935456770292
  0.6657669252700734  0.9145883337313355  0.4997968671605141
  0.1666997601150275  0.9149684701235659  0.4999790945574963
  0.8349884926003129  0.0817149458557521  0.3949012381528639
  0.4178256595259926  0.6671297426263197  0.4999454966974681
  0.2535129799794990 -0.0006250592846810  0.6047102912497474
  0.1663447529776454  0.1656047518078405  0.5000174078695037
  0.1647660322325070  0.4191228168441712  0.5004541099210477
  0.0010501764856895  0.7486062446947853  0.6033925965262515
  0.9126122540189274  0.1679777664153776  0.4996090000825721
  0.0011383172501349 -0.0006276958681319  0.6063135742587156
  0.9127044376711093  0.4193024276116478  0.4995710688111522
  0.0849880430607522  0.5846694564744246  0.3986012454450323
  0.7506450855713404  0.2507700974154610  0.6026960740563636
 -0.0004105639648546  0.4991300185553225  0.6032148470421951
  0.4999389041121182  0.5028202674716697  0.6034788800056767
  0.8338698264923300  0.5839753249839635  0.3970697347711054
  0.9155849661775624  0.9152103247512006  0.5000464573297849
  0.6659663285358099  0.1667189852134590  0.4992355092872131
  0.7503777991149488 -0.0012466260310193  0.5972125746938015
  0.7497270654971755  0.5025238597311896  0.5964529001405948
  0.4159657833464214  0.9160502228533428  0.5005469761365785
  0.8347243075461662  0.3328521430903471  0.4014177950971676
  0.8334880456419516  0.8331405630268599  0.4021155013065070
  0.6651587050548695  0.4171840707606299  0.5000260827471406
  0.5021902569042266  0.7503214369907935  0.5965871659426945
  0.6661806114653149  0.6664864417412569  0.4987334846104540
  0.2513857141426558  0.7495354761346311  0.5978795845437855
  0.5018708496298978 -0.0017261865678177  0.5977388922184075
  0.3339856773153692  0.8342408976305878  0.4021866409454633
  0.2504883952773909  0.5001385514224455  0.5986357940826943
  0.1644402400448582  0.6668871065651306  0.5006527839185158
  0.3327550450032463  0.5850591080627923  0.4029776107576900
  0.2507634766726825  0.2494857889902461  0.5984376307387529
  0.3325964953630403  0.3332171725252864  0.4018188657169286
  0.3333508276815114  0.0826459959375823  0.4021932712919075
  0.0845928163237388  0.8330645677556834  0.4023027342291383
  0.9150412413469546  0.6670087341596467  0.5002085044027180
  0.0006060915354513  0.2499749320816079  0.5980414952472589
  0.0849274209195858  0.3328965243895933  0.4017842872784125
  0.5818534058079176  0.8342021928565411  0.4028231559261997
  0.7480291291929750  0.7507974154029706  0.5965571595494771
 
  0.00000000E+00  0.00000000E+00  0.00000000E+00
  0.00000000E+00  0.00000000E+00  0.00000000E+00
  0.00000000E+00  0.00000000E+00  0.00000000E+00
  0.00000000E+00  0.00000000E+00  0.00000000E+00
  0.00000000E+00  0.00000000E+00  0.00000000E+00
  0.00000000E+00  0.00000000E+00  0.00000000E+00
  0.00000000E+00  0.00000000E+00  0.00000000E+00
  0.00000000E+00  0.00000000E+00  0.00000000E+00
  0.00000000E+00  0.00000000E+00  0.00000000E+00
  0.00000000E+00  0.00000000E+00  0.00000000E+00
  0.00000000E+00  0.00000000E+00  0.00000000E+00
  0.00000000E+00  0.00000000E+00  0.00000000E+00
  0.00000000E+00  0.00000000E+00  0.00000000E+00
  0.00000000E+00  0.00000000E+00  0.00000000E+00
  0.00000000E+00  0.00000000E+00  0.00000000E+00
  0.00000000E+00  0.00000000E+00  0.00000000E+00
  0.00000000E+00  0.00000000E+00  0.00000000E+00
  0.00000000E+00  0.00000000E+00  0.00000000E+00
  0.00000000E+00  0.00000000E+00  0.00000000E+00
  0.00000000E+00  0.00000000E+00  0.00000000E+00
  0.00000000E+00  0.00000000E+00  0.00000000E+00
  0.00000000E+00  0.00000000E+00  0.00000000E+00
  0.00000000E+00  0.00000000E+00  0.00000000E+00
  0.00000000E+00  0.00000000E+00  0.00000000E+00
  0.00000000E+00  0.00000000E+00  0.00000000E+00
  0.00000000E+00  0.00000000E+00  0.00000000E+00
  0.00000000E+00  0.00000000E+00  0.00000000E+00
  0.00000000E+00  0.00000000E+00  0.00000000E+00
  0.00000000E+00  0.00000000E+00  0.00000000E+00
  0.00000000E+00  0.00000000E+00  0.00000000E+00
  0.00000000E+00  0.00000000E+00  0.00000000E+00
  0.00000000E+00  0.00000000E+00  0.00000000E+00
  0.00000000E+00  0.00000000E+00  0.00000000E+00
  0.00000000E+00  0.00000000E+00  0.00000000E+00
  0.00000000E+00  0.00000000E+00  0.00000000E+00
  0.00000000E+00  0.00000000E+00  0.00000000E+00
  0.00000000E+00  0.00000000E+00  0.00000000E+00
  0.00000000E+00  0.00000000E+00  0.00000000E+00
  0.00000000E+00  0.00000000E+00  0.00000000E+00
  0.00000000E+00  0.00000000E+00  0.00000000E+00
  0.00000000E+00  0.00000000E+00  0.00000000E+00
  0.00000000E+00  0.00000000E+00  0.00000000E+00
  0.00000000E+00  0.00000000E+00  0.00000000E+00
  0.00000000E+00  0.00000000E+00  0.00000000E+00
  0.00000000E+00  0.00000000E+00  0.00000000E+00
  0.00000000E+00  0.00000000E+00  0.00000000E+00
  0.00000000E+00  0.00000000E+00  0.00000000E+00
  0.00000000E+00  0.00000000E+00  0.00000000E+00
