Au Pd                                   
   1.00000000000000     
    11.0025815152626798    0.0000000000000000    0.0000000000000000
     5.5012907576313399    9.5285150994265617    0.0000000000000000
     0.0000000000000000    0.0000000000000000   24.4917850942952882
   Au   Pd
    24    24
Direct
  0.0836675810240233  0.0840370249325565  0.3953528015826292
  0.1664507513412026  0.9159876166293111  0.4994018882177702
  0.6666423677447160  0.9174027633395924  0.5014221396266689
  0.5830466475482109  0.0843257327511031  0.3956821017606403
  0.4155289322812057  0.1672674863462945  0.5005907028891666
  0.5829450218505319  0.3372570085526327  0.3981188486975247
  0.4179851992664953  0.4185472569403831  0.5019605459375782
  0.3367240267057933  0.8284347327183805  0.3956063899473840
  0.4999492456529789  0.2499771610884700  0.6045607303382062
  0.4969240651275476  0.7499673591072449  0.6049849535931063
  0.8346956895455216  0.0841194782836002  0.3966682668757192
  0.7500607687018551  0.0019798665203766  0.6046117777187676
  0.8336258123178555  0.5811560741717873  0.3959868491908501
  0.6671352523117811  0.6631326378729602  0.5015971021773719
  0.8345742392611047  0.8321955334855028  0.3938660243194486
  0.4148008508972472  0.9166638340311257  0.5000954434076751
  0.2492089564155734  0.5001876231622063  0.6060990231475433
  0.7491909531576276  0.7478376466433095  0.6096672292013836
  0.9168213366834989  0.6651697379990104  0.5016490461751568
  0.1645628246424847  0.4160749382660010  0.5012550196372582
  0.3334707387083461  0.0844365371677415  0.3939167677301006
  0.0011014448617942  0.7506252724980924  0.6059899239972825
  0.0875729876433548  0.5823026422207754  0.3977353211732370
  0.9167611735255843  0.9177506095040443  0.5005575801770579
 -0.0011048919350206  0.2507950690112791  0.5938731684555956
  0.6681436169779349  0.1678207767296914  0.4994753221264204
  0.9152545121200832  0.4153138090315955  0.4992150060248576
  0.8348948324643126  0.3341498673556449  0.4031531647012926
  0.3338568460011813  0.5839149759936260  0.4055345981272965
  0.0838552871123410  0.3333625392245429  0.4025841556753610
  0.0000933743098382  0.0040616614128630  0.5969875769941678
  0.7506807726378829  0.4977557060555804  0.5974016659861751
  0.9155118838562764  0.1687356559385187  0.4978478251830611
  0.6677862390667807  0.4151376703126975  0.4996331641213450
  0.7506095992904003  0.2511927620587508  0.5943461251813500
  0.5021453598228842  0.4991750868250810  0.5984863941449012
  0.2477018906842671  0.2485969475766731  0.5975196657127527
  0.4170192455731967  0.6660005601016694  0.5014159839331737
  0.5845917443839171  0.5831146317192489  0.4043059062976179
 -0.0013452624608223  0.4971989087086449  0.5986982531471947
  0.0850831429782140  0.8318960845364702  0.4028381863117308
  0.4973441975169252  0.0008260172547831  0.5992887251346446
  0.1629245034030158  0.1673833126826884  0.4975992190200089
  0.2473673621520417  0.0028190406611807  0.5961243313164262
  0.3336635792685620  0.3339271980716949  0.4034593834792385
  0.1665537453618505  0.6661404129880205  0.5022898536402876
  0.5843739092501717  0.8327096905312037  0.4031840903406771
  0.2495476429474296  0.7511350409853489  0.5973617574248955
 
  0.00000000E+00  0.00000000E+00  0.00000000E+00
  0.00000000E+00  0.00000000E+00  0.00000000E+00
  0.00000000E+00  0.00000000E+00  0.00000000E+00
  0.00000000E+00  0.00000000E+00  0.00000000E+00
  0.00000000E+00  0.00000000E+00  0.00000000E+00
  0.00000000E+00  0.00000000E+00  0.00000000E+00
  0.00000000E+00  0.00000000E+00  0.00000000E+00
  0.00000000E+00  0.00000000E+00  0.00000000E+00
  0.00000000E+00  0.00000000E+00  0.00000000E+00
  0.00000000E+00  0.00000000E+00  0.00000000E+00
  0.00000000E+00  0.00000000E+00  0.00000000E+00
  0.00000000E+00  0.00000000E+00  0.00000000E+00
  0.00000000E+00  0.00000000E+00  0.00000000E+00
  0.00000000E+00  0.00000000E+00  0.00000000E+00
  0.00000000E+00  0.00000000E+00  0.00000000E+00
  0.00000000E+00  0.00000000E+00  0.00000000E+00
  0.00000000E+00  0.00000000E+00  0.00000000E+00
  0.00000000E+00  0.00000000E+00  0.00000000E+00
  0.00000000E+00  0.00000000E+00  0.00000000E+00
  0.00000000E+00  0.00000000E+00  0.00000000E+00
  0.00000000E+00  0.00000000E+00  0.00000000E+00
  0.00000000E+00  0.00000000E+00  0.00000000E+00
  0.00000000E+00  0.00000000E+00  0.00000000E+00
  0.00000000E+00  0.00000000E+00  0.00000000E+00
  0.00000000E+00  0.00000000E+00  0.00000000E+00
  0.00000000E+00  0.00000000E+00  0.00000000E+00
  0.00000000E+00  0.00000000E+00  0.00000000E+00
  0.00000000E+00  0.00000000E+00  0.00000000E+00
  0.00000000E+00  0.00000000E+00  0.00000000E+00
  0.00000000E+00  0.00000000E+00  0.00000000E+00
  0.00000000E+00  0.00000000E+00  0.00000000E+00
  0.00000000E+00  0.00000000E+00  0.00000000E+00
  0.00000000E+00  0.00000000E+00  0.00000000E+00
  0.00000000E+00  0.00000000E+00  0.00000000E+00
  0.00000000E+00  0.00000000E+00  0.00000000E+00
  0.00000000E+00  0.00000000E+00  0.00000000E+00
  0.00000000E+00  0.00000000E+00  0.00000000E+00
  0.00000000E+00  0.00000000E+00  0.00000000E+00
  0.00000000E+00  0.00000000E+00  0.00000000E+00
  0.00000000E+00  0.00000000E+00  0.00000000E+00
  0.00000000E+00  0.00000000E+00  0.00000000E+00
  0.00000000E+00  0.00000000E+00  0.00000000E+00
  0.00000000E+00  0.00000000E+00  0.00000000E+00
  0.00000000E+00  0.00000000E+00  0.00000000E+00
  0.00000000E+00  0.00000000E+00  0.00000000E+00
  0.00000000E+00  0.00000000E+00  0.00000000E+00
  0.00000000E+00  0.00000000E+00  0.00000000E+00
  0.00000000E+00  0.00000000E+00  0.00000000E+00
