Au Pd                                   
   1.00000000000000     
    11.0025815152626798    0.0000000000000000    0.0000000000000000
     5.5012907576313399    9.5285150994265617    0.0000000000000000
     0.0000000000000000    0.0000000000000000   24.4917850942952882
   Au   Pd
    24    24
Selective dynamics
Direct
  0.8333333333333357  0.0833333333333357  0.4083001692812189   F   F   F
  0.7512280883448726  0.5009683838282845  0.6112733095979002   T   T   T
  0.9153197009697120  0.4163646807840602  0.5094211384075907   T   T   T
  0.8333333333333357  0.5833333333333357  0.4083001692812189   F   F   F
  0.0833333333333357  0.5833333333333357  0.4083001692812189   F   F   F
  0.7549049261460649  0.2483031418313280  0.6116502791359445   T   T   T
  0.0018314012934786  0.5013923570835083  0.6128316640490571   T   T   T
  0.8333333333333357  0.3333333333333357  0.4083001692812189   F   F   F
  0.7555870279869230 -0.0044319666513897  0.6128765242333818   T   T   T
  0.6671163251011960  0.1666680680192286  0.5112413712458865   T   T   T
  0.4968230745792307  0.2511832769974583  0.6115362574488350   T   T   T
  0.4206831675749717  0.6632818475283420  0.5073058470742917   T   T   T
  0.1688076463321578  0.1642841806304250  0.5060854016810303   T   T   T
  0.1686114947698946  0.4145884495356175  0.5097511669211074   T   T   T
  0.4982161738442495  0.7523239062871135  0.6100644350303592   T   T   T
  0.1663344502957611  0.6663866209653556  0.5074364460125933   T   T   T
  0.3333333333333357  0.8333333333333357  0.4083001692812189   F   F   F
  0.1647243933126712  0.9174568633607065  0.5070928874781477   T   T   T
  0.6683863692992245  0.9121706230716935  0.5072676214413878   T   T   T
  0.5833333333333357  0.0833333333333357  0.4083001692812189   F   F   F
  0.4977820036446685  0.5010032524177650  0.6110928611388465   T   T   T
  0.4989928242652220  0.0002393643895050  0.6100031458238236   T   T   T
  0.5833333333333357  0.3333333333333357  0.4083001692812189   F   F   F
  0.3333333333333357  0.3333333333333357  0.4083001692812189   F   F   F
  0.0833333333333357  0.8333333333333357  0.4083001692812189   F   F   F
  0.5833333333333357  0.5833333333333357  0.4083001692812189   F   F   F
  0.9155486139198846  0.9158621669444900  0.5073840502901468   T   T   T
  0.3333333333333357  0.0833333333333357  0.4083001692812189   F   F   F
  0.4179846135570001  0.1640851022530183  0.5087759596206205   T   T   T
  0.2492197456336031  0.2490335766456864  0.6061927016005667   T   T   T
  0.3333333333333357  0.5833333333333357  0.4083001692812189   F   F   F
  0.2492539890087326  0.5015891036837958  0.6061079544802513   T   T   T
  0.9165462598481672  0.6662286744674037  0.5082622014876558   T   T   T
  0.2481646222629993  0.0013593782403763  0.6043754685359519   T   T   T
  0.0032827419581553  0.2480900340263539  0.6051231379743249   T   T   T
  0.2477579791504925  0.7517557149237534  0.6051199158914741   T   T   T
  0.0025337862606593 -0.0012393752414535  0.6043369396500775   T   T   T
  0.9159695086622184  0.1656432641838052  0.5082168628397468   T   T   T
  0.4181565033184484  0.4149821015558210  0.5092611305588218   T   T   T
  0.0833333333333357  0.0833333333333357  0.4083001692812189   F   F   F
  0.8333333333333357  0.8333333333333357  0.4083001692812189   F   F   F
  0.6669710195254447  0.6652444354959061  0.5074306073394205   T   T   T
  0.5833333333333357  0.8333333333333357  0.4083001692812189   F   F   F
  0.4190389723315046  0.9154257877635427  0.5074385129702087   T   T   T
  0.6671853016829082  0.4160392021349602  0.5094562834236785   T   T   T
  0.0021401691698541  0.7495759614023488  0.6043596544310210   T   T   T
  0.0833333333333357  0.3333333333333357  0.4083001692812189   F   F   F
  0.7515674543789406  0.7497272854373055  0.6047606638004835   T   T   T
 
  0.00000000E+00  0.00000000E+00  0.00000000E+00
  0.00000000E+00  0.00000000E+00  0.00000000E+00
  0.00000000E+00  0.00000000E+00  0.00000000E+00
  0.00000000E+00  0.00000000E+00  0.00000000E+00
  0.00000000E+00  0.00000000E+00  0.00000000E+00
  0.00000000E+00  0.00000000E+00  0.00000000E+00
  0.00000000E+00  0.00000000E+00  0.00000000E+00
  0.00000000E+00  0.00000000E+00  0.00000000E+00
  0.00000000E+00  0.00000000E+00  0.00000000E+00
  0.00000000E+00  0.00000000E+00  0.00000000E+00
  0.00000000E+00  0.00000000E+00  0.00000000E+00
  0.00000000E+00  0.00000000E+00  0.00000000E+00
  0.00000000E+00  0.00000000E+00  0.00000000E+00
  0.00000000E+00  0.00000000E+00  0.00000000E+00
  0.00000000E+00  0.00000000E+00  0.00000000E+00
  0.00000000E+00  0.00000000E+00  0.00000000E+00
  0.00000000E+00  0.00000000E+00  0.00000000E+00
  0.00000000E+00  0.00000000E+00  0.00000000E+00
  0.00000000E+00  0.00000000E+00  0.00000000E+00
  0.00000000E+00  0.00000000E+00  0.00000000E+00
  0.00000000E+00  0.00000000E+00  0.00000000E+00
  0.00000000E+00  0.00000000E+00  0.00000000E+00
  0.00000000E+00  0.00000000E+00  0.00000000E+00
  0.00000000E+00  0.00000000E+00  0.00000000E+00
  0.00000000E+00  0.00000000E+00  0.00000000E+00
  0.00000000E+00  0.00000000E+00  0.00000000E+00
  0.00000000E+00  0.00000000E+00  0.00000000E+00
  0.00000000E+00  0.00000000E+00  0.00000000E+00
  0.00000000E+00  0.00000000E+00  0.00000000E+00
  0.00000000E+00  0.00000000E+00  0.00000000E+00
  0.00000000E+00  0.00000000E+00  0.00000000E+00
  0.00000000E+00  0.00000000E+00  0.00000000E+00
  0.00000000E+00  0.00000000E+00  0.00000000E+00
  0.00000000E+00  0.00000000E+00  0.00000000E+00
  0.00000000E+00  0.00000000E+00  0.00000000E+00
  0.00000000E+00  0.00000000E+00  0.00000000E+00
  0.00000000E+00  0.00000000E+00  0.00000000E+00
  0.00000000E+00  0.00000000E+00  0.00000000E+00
  0.00000000E+00  0.00000000E+00  0.00000000E+00
  0.00000000E+00  0.00000000E+00  0.00000000E+00
  0.00000000E+00  0.00000000E+00  0.00000000E+00
  0.00000000E+00  0.00000000E+00  0.00000000E+00
  0.00000000E+00  0.00000000E+00  0.00000000E+00
  0.00000000E+00  0.00000000E+00  0.00000000E+00
  0.00000000E+00  0.00000000E+00  0.00000000E+00
  0.00000000E+00  0.00000000E+00  0.00000000E+00
  0.00000000E+00  0.00000000E+00  0.00000000E+00
  0.00000000E+00  0.00000000E+00  0.00000000E+00
