Au Pd                                   
   1.00000000000000     
    11.0025815152626798    0.0000000000000000    0.0000000000000000
     5.5012907576313399    9.5285150994265617    0.0000000000000000
     0.0000000000000000    0.0000000000000000   24.4917850942952882
   Au   Pd
    24    24
Direct
  0.2500760805531230  0.7488496189820303  0.6074003609561820
  0.4162257430789577  0.1678040601393822  0.4990768825754952
  0.5819375487683275  0.0827796781900053  0.3968332754330724
  0.4183721282401801  0.6676764960991365  0.5003153137318544
  0.1657080090803759  0.9191864359273828  0.5001426098346647
  0.3338478910373920  0.8336332192342442  0.3925341474453673
  0.4979826532000422  0.4980807557934404  0.6091765292689019
  0.1642041830608967  0.6673713299884003  0.5000720450318014
  0.5857980165332578  0.8308259635775959  0.3983976431114636
  0.4180789208403130  0.9180570345598371  0.4996617341194902
  0.5004602573916124  0.7517303885965634  0.6045131930846925
  0.8340779712493342  0.0824640258502907  0.3988017264784085
  0.5812336986118605  0.3355717856139863  0.3957932251988684
  0.4168482998666798  0.4163029971333619  0.5004181059115159
  0.8358865597779713  0.3354498083911146  0.3946402163023898
  0.9990707805710557  0.7459654410905817  0.6023316149274957
  0.6688089592598131  0.4179062813719335  0.4995982036626333
  0.0837328166693716  0.8328993193674271  0.3970672980853251
  0.7486143131284382  0.2495859391516041  0.6031226853030165
  0.0830670733574866  0.5807763403666588  0.3966141125774790
  0.7532983541303755  0.4992401231702185  0.6029515578309086
  0.0007192801613629  0.9999940754698471  0.6058502563882602
  0.9173446391836029  0.1678946278264519  0.4999412951175168
  0.7463092956486720  0.9996868862301265  0.6000834885670201
  0.8345820343662596  0.5821677132223732  0.4050728347115253
  0.6698256673110351  0.6673841669429633  0.5010495899993820
  0.8346586941751956  0.8314938873618388  0.4046313815633921
  0.5840864711404524  0.5836655116171543  0.4025585036353259
  0.6676451214895732  0.1658422934282713  0.4989802120192274
  0.0847826374267873  0.0839799572773607  0.4018991322879836
  0.4982557617020819  0.0009739108439777  0.5965524903951329
  0.0847951428217798  0.3315275498777349  0.4037926038021549
  0.9175172939035754  0.4185326983757496  0.5000971718120302
  0.0017945839443634  0.2491327070579911  0.5968530699073995
  0.9164407998620834  0.6671718005109839  0.4998863697515306
  0.0015819029370439  0.4972469721087885  0.5948954226672937
  0.9150790863206387  0.9171607922506627  0.5013232987789441
  0.3303918304625952  0.0854866642466777  0.4019869308005525
  0.1650240819180916  0.1705335620366145  0.5000229124236141
  0.2492860919250803  0.0014189270043883  0.5972239296488779
  0.3318232517904783  0.3335320478963353  0.4019116851602207
  0.1625832008711821  0.4189244699566769  0.4987203317653190
  0.2488656305119231  0.2495463990980583  0.5957450921869901
  0.3339324021967986  0.5827379223754889  0.4025282607598506
  0.2491264121126262  0.4968247696840777  0.5970541270853168
  0.6695562990103370  0.9161437189711679  0.4992805534310140
  0.4973874946824899  0.2495379075770799  0.5969258460668943
  0.7492746337170324  0.7493010181559849  0.5956707283961904
 
  0.00000000E+00  0.00000000E+00  0.00000000E+00
  0.00000000E+00  0.00000000E+00  0.00000000E+00
  0.00000000E+00  0.00000000E+00  0.00000000E+00
  0.00000000E+00  0.00000000E+00  0.00000000E+00
  0.00000000E+00  0.00000000E+00  0.00000000E+00
  0.00000000E+00  0.00000000E+00  0.00000000E+00
  0.00000000E+00  0.00000000E+00  0.00000000E+00
  0.00000000E+00  0.00000000E+00  0.00000000E+00
  0.00000000E+00  0.00000000E+00  0.00000000E+00
  0.00000000E+00  0.00000000E+00  0.00000000E+00
  0.00000000E+00  0.00000000E+00  0.00000000E+00
  0.00000000E+00  0.00000000E+00  0.00000000E+00
  0.00000000E+00  0.00000000E+00  0.00000000E+00
  0.00000000E+00  0.00000000E+00  0.00000000E+00
  0.00000000E+00  0.00000000E+00  0.00000000E+00
  0.00000000E+00  0.00000000E+00  0.00000000E+00
  0.00000000E+00  0.00000000E+00  0.00000000E+00
  0.00000000E+00  0.00000000E+00  0.00000000E+00
  0.00000000E+00  0.00000000E+00  0.00000000E+00
  0.00000000E+00  0.00000000E+00  0.00000000E+00
  0.00000000E+00  0.00000000E+00  0.00000000E+00
  0.00000000E+00  0.00000000E+00  0.00000000E+00
  0.00000000E+00  0.00000000E+00  0.00000000E+00
  0.00000000E+00  0.00000000E+00  0.00000000E+00
  0.00000000E+00  0.00000000E+00  0.00000000E+00
  0.00000000E+00  0.00000000E+00  0.00000000E+00
  0.00000000E+00  0.00000000E+00  0.00000000E+00
  0.00000000E+00  0.00000000E+00  0.00000000E+00
  0.00000000E+00  0.00000000E+00  0.00000000E+00
  0.00000000E+00  0.00000000E+00  0.00000000E+00
  0.00000000E+00  0.00000000E+00  0.00000000E+00
  0.00000000E+00  0.00000000E+00  0.00000000E+00
  0.00000000E+00  0.00000000E+00  0.00000000E+00
  0.00000000E+00  0.00000000E+00  0.00000000E+00
  0.00000000E+00  0.00000000E+00  0.00000000E+00
  0.00000000E+00  0.00000000E+00  0.00000000E+00
  0.00000000E+00  0.00000000E+00  0.00000000E+00
  0.00000000E+00  0.00000000E+00  0.00000000E+00
  0.00000000E+00  0.00000000E+00  0.00000000E+00
  0.00000000E+00  0.00000000E+00  0.00000000E+00
  0.00000000E+00  0.00000000E+00  0.00000000E+00
  0.00000000E+00  0.00000000E+00  0.00000000E+00
  0.00000000E+00  0.00000000E+00  0.00000000E+00
  0.00000000E+00  0.00000000E+00  0.00000000E+00
  0.00000000E+00  0.00000000E+00  0.00000000E+00
  0.00000000E+00  0.00000000E+00  0.00000000E+00
  0.00000000E+00  0.00000000E+00  0.00000000E+00
  0.00000000E+00  0.00000000E+00  0.00000000E+00
