Au Pd                                   
   1.00000000000000     
    11.0025815152626798    0.0000000000000000    0.0000000000000000
     5.5012907576313399    9.5285150994265617    0.0000000000000000
     0.0000000000000000    0.0000000000000000   24.4917850942952882
   Au   Pd
    24    24
Direct
  0.2500507330755398  0.7488666944580437  0.6073952798716666
  0.4162010598170655  0.1677879343913767  0.4990853891031387
  0.5819051305791989  0.0827786799552301  0.3968409986160714
  0.4183619679551931  0.6676239598840890  0.5003062127511442
  0.1657038755363216  0.9191666499979940  0.5001317384594715
  0.3338696501172367  0.8336553385556730  0.3925049222289871
  0.4980375200741528  0.4980646665954300  0.6091872207568036
  0.1642422388854474  0.6674144564891383  0.5000546696510665
  0.5857611606533499  0.8308201165739015  0.3984038716065201
  0.4180738160249812  0.9180919045129206  0.4996615051095816
  0.5004930970759280  0.7517217609511400  0.6045106775084125
  0.8340926102981761  0.0824792139218130  0.3988098264649361
  0.5812154078771407  0.3355688436566741  0.3957914586274211
  0.4168875313493889  0.4163473343526056  0.5004117322220366
  0.8358580924622649  0.3354634329586632  0.3946212106949297
 -0.0009172339772392  0.7460028712299829  0.6023258429732640
  0.6687669733836340  0.4179121281189092  0.4995962099407056
  0.0837212192645994  0.8328806754083045  0.3970586254935434
  0.7486236625323285  0.2496022331497938  0.6031139183836526
  0.0830763664364924  0.5807742650862389  0.3966077119285827
  0.7532783905089554  0.4992413246550863  0.6029487577962052
  0.0007255367561063 -0.0000488807800290  0.6058657112265418
  0.9173337395437016  0.1678967268240650  0.4999506577212123
  0.7463621708597471 -0.0003258914591773  0.6000788792218528
  0.8345502456851058  0.5821422268714691  0.4050855266666648
  0.6698728694981912  0.6673741030728325  0.5010461120545393
  0.8346772877258807  0.8314793586311501  0.4046408163457456
  0.5840922566059812  0.5836724771273760  0.4025498146387372
  0.6676423753045395  0.1658776235370079  0.4989710781704190
  0.0847789235134822  0.0839530665179601  0.4018891172429327
  0.4982380812328798  0.0009877526509846  0.5965590612644376
  0.0847567157871112  0.3315466769432389  0.4038103546553661
  0.9175240901859126  0.4185737590783398  0.5001007231404926
  0.0017740759663382  0.2491527669256157  0.5968662432576639
  0.9163842870911465  0.6671638628745276  0.4998885689707303
  0.0015765177673152  0.4972284601030132  0.5948856773849613
  0.9151006686388956  0.9171580064049268  0.5013319236019160
  0.3304110785685421  0.0854372476769290  0.4019984700646524
  0.1650417812897562  0.1705743950790209  0.5000256148673036
  0.2493067011420581  0.0013977521444613  0.5972220940836490
  0.3318326579368668  0.3335521834974199  0.4019193292523239
  0.1625830552479997  0.4188829796185908  0.4987276697605933
  0.2488806492954405  0.2495468952164956  0.5957495701639486
  0.3339076768055826  0.5827209144093833  0.4025198282669223
  0.2491202321570023  0.4968339557727936  0.5970574028263894
  0.6695656847121482  0.9161162705508601  0.4992863040112213
  0.4973977332392739  0.2495385452691405  0.5969357290953352
  0.7492596375128395  0.7493022805385947  0.5956699418553066
 
  0.00000000E+00  0.00000000E+00  0.00000000E+00
  0.00000000E+00  0.00000000E+00  0.00000000E+00
  0.00000000E+00  0.00000000E+00  0.00000000E+00
  0.00000000E+00  0.00000000E+00  0.00000000E+00
  0.00000000E+00  0.00000000E+00  0.00000000E+00
  0.00000000E+00  0.00000000E+00  0.00000000E+00
  0.00000000E+00  0.00000000E+00  0.00000000E+00
  0.00000000E+00  0.00000000E+00  0.00000000E+00
  0.00000000E+00  0.00000000E+00  0.00000000E+00
  0.00000000E+00  0.00000000E+00  0.00000000E+00
  0.00000000E+00  0.00000000E+00  0.00000000E+00
  0.00000000E+00  0.00000000E+00  0.00000000E+00
  0.00000000E+00  0.00000000E+00  0.00000000E+00
  0.00000000E+00  0.00000000E+00  0.00000000E+00
  0.00000000E+00  0.00000000E+00  0.00000000E+00
  0.00000000E+00  0.00000000E+00  0.00000000E+00
  0.00000000E+00  0.00000000E+00  0.00000000E+00
  0.00000000E+00  0.00000000E+00  0.00000000E+00
  0.00000000E+00  0.00000000E+00  0.00000000E+00
  0.00000000E+00  0.00000000E+00  0.00000000E+00
  0.00000000E+00  0.00000000E+00  0.00000000E+00
  0.00000000E+00  0.00000000E+00  0.00000000E+00
  0.00000000E+00  0.00000000E+00  0.00000000E+00
  0.00000000E+00  0.00000000E+00  0.00000000E+00
  0.00000000E+00  0.00000000E+00  0.00000000E+00
  0.00000000E+00  0.00000000E+00  0.00000000E+00
  0.00000000E+00  0.00000000E+00  0.00000000E+00
  0.00000000E+00  0.00000000E+00  0.00000000E+00
  0.00000000E+00  0.00000000E+00  0.00000000E+00
  0.00000000E+00  0.00000000E+00  0.00000000E+00
  0.00000000E+00  0.00000000E+00  0.00000000E+00
  0.00000000E+00  0.00000000E+00  0.00000000E+00
  0.00000000E+00  0.00000000E+00  0.00000000E+00
  0.00000000E+00  0.00000000E+00  0.00000000E+00
  0.00000000E+00  0.00000000E+00  0.00000000E+00
  0.00000000E+00  0.00000000E+00  0.00000000E+00
  0.00000000E+00  0.00000000E+00  0.00000000E+00
  0.00000000E+00  0.00000000E+00  0.00000000E+00
  0.00000000E+00  0.00000000E+00  0.00000000E+00
  0.00000000E+00  0.00000000E+00  0.00000000E+00
  0.00000000E+00  0.00000000E+00  0.00000000E+00
  0.00000000E+00  0.00000000E+00  0.00000000E+00
  0.00000000E+00  0.00000000E+00  0.00000000E+00
  0.00000000E+00  0.00000000E+00  0.00000000E+00
  0.00000000E+00  0.00000000E+00  0.00000000E+00
  0.00000000E+00  0.00000000E+00  0.00000000E+00
  0.00000000E+00  0.00000000E+00  0.00000000E+00
  0.00000000E+00  0.00000000E+00  0.00000000E+00
