Au Pd                                   
   1.00000000000000     
    11.0025815152626798    0.0000000000000000    0.0000000000000000
     5.5012907576313399    9.5285150994265617    0.0000000000000000
     0.0000000000000000    0.0000000000000000   24.4917850942952882
   Au   Pd
    24    24
Direct
  0.0814608273827291  0.0837005262823898  0.3955055389692736
  0.3305288252700008  0.8336640779812734  0.3914914464020315
  0.1636270761710202  0.9165977163098346  0.4996810262359512
  0.6690670261637813  0.9168206517088467  0.5014394605566066
  0.5812806427435033  0.0843134545872047  0.3981797329728848
  0.4988646067817795  0.0005518531817118  0.6054187586743344
  0.4995060346316312  0.2521442657362691  0.6031541025674469
  0.5837840510767235  0.5808923043770590  0.3913221141428971
  0.4164990700602904  0.6637126557385212  0.4972038161133524
  0.5850019881633450  0.8328710213546666  0.3904726313088468
  0.4170918026023233  0.9177423468746568  0.4980729895456356
  0.6672434801192136  0.1685314827255999  0.5001022994947899
  0.7526490564575051  0.0008341356341223  0.6064855494647313
  0.8328170721079954  0.3320682244274243  0.3958864667065459
  0.7525051737143877  0.2530655583340461  0.6009857383015933
  0.6688877921750850  0.6657669891070263  0.4968837224263183
  0.2500183137031883  0.4987569233960840  0.6022412075776465
  0.3289912695903044  0.5808732439417097  0.3974379795109318
  0.2522328149141461  0.7498524834260728  0.6035622294942198
  0.7507035638331663  0.7464949192841849  0.6050600014500438
  0.2482549951068020  0.0023020216664075  0.6056955995899503
  0.1677154741968785  0.1684362015903978  0.4996189563033541
  0.0004576249621543  0.7494789623720229  0.6038064006730237
  0.9182024981242841  0.4170618690280541  0.4980879341988790
  0.8346858591256107  0.8312712520277346  0.4055915914119319
  0.7499123879045237  0.5004312714953763  0.5943675357813346
  0.9162537821876772  0.1670104330688224  0.4986665962045509
  0.8348515487283287  0.5836720408867121  0.4010333552504096
  0.0010718570592523  0.0019066450209538  0.5974549454330665
  0.6670831528828658  0.4159961722217453  0.4970570352182876
  0.0846887449764041  0.3351808408201127  0.4023037099155119
  0.0000953590087249  0.2517521864817390  0.5958126154025176
  0.8329331931143419  0.0806397877345533  0.4039195895055830
  0.5007991691706071  0.7499520878900899  0.5945892029887831
  0.1656818476440798  0.6655841541151509  0.5021881192353268
  0.2494036377335345  0.2503175193293733  0.5979765171782967
  0.5016959477503428  0.5011837379670198  0.5944984907292712
  0.0000212234662434  0.4971107481773185  0.5967022135740999
  0.0799046728366316  0.8325244697506302  0.4045226928490725
  0.9173985006427067  0.9157160596657864  0.5024307218432774
  0.4153607984568411  0.4168732773041868  0.5002518073755754
  0.5811217903438338  0.3325171618779555  0.4025197330683041
  0.4174481835800639  0.1681527684072322  0.5015133631920730
  0.3319460635827595  0.0840996339407893  0.4018779531248697
  0.3307679414592730  0.3328118825573038  0.4057524192809336
  0.1696921442417678  0.4182241852314854  0.5017997014404002
  0.0806930621407525  0.5834097194361546  0.4067650137412845
  0.9190980519105959  0.6671280755261876  0.5026093735739499
 
  0.00000000E+00  0.00000000E+00  0.00000000E+00
  0.00000000E+00  0.00000000E+00  0.00000000E+00
  0.00000000E+00  0.00000000E+00  0.00000000E+00
  0.00000000E+00  0.00000000E+00  0.00000000E+00
  0.00000000E+00  0.00000000E+00  0.00000000E+00
  0.00000000E+00  0.00000000E+00  0.00000000E+00
  0.00000000E+00  0.00000000E+00  0.00000000E+00
  0.00000000E+00  0.00000000E+00  0.00000000E+00
  0.00000000E+00  0.00000000E+00  0.00000000E+00
  0.00000000E+00  0.00000000E+00  0.00000000E+00
  0.00000000E+00  0.00000000E+00  0.00000000E+00
  0.00000000E+00  0.00000000E+00  0.00000000E+00
  0.00000000E+00  0.00000000E+00  0.00000000E+00
  0.00000000E+00  0.00000000E+00  0.00000000E+00
  0.00000000E+00  0.00000000E+00  0.00000000E+00
  0.00000000E+00  0.00000000E+00  0.00000000E+00
  0.00000000E+00  0.00000000E+00  0.00000000E+00
  0.00000000E+00  0.00000000E+00  0.00000000E+00
  0.00000000E+00  0.00000000E+00  0.00000000E+00
  0.00000000E+00  0.00000000E+00  0.00000000E+00
  0.00000000E+00  0.00000000E+00  0.00000000E+00
  0.00000000E+00  0.00000000E+00  0.00000000E+00
  0.00000000E+00  0.00000000E+00  0.00000000E+00
  0.00000000E+00  0.00000000E+00  0.00000000E+00
  0.00000000E+00  0.00000000E+00  0.00000000E+00
  0.00000000E+00  0.00000000E+00  0.00000000E+00
  0.00000000E+00  0.00000000E+00  0.00000000E+00
  0.00000000E+00  0.00000000E+00  0.00000000E+00
  0.00000000E+00  0.00000000E+00  0.00000000E+00
  0.00000000E+00  0.00000000E+00  0.00000000E+00
  0.00000000E+00  0.00000000E+00  0.00000000E+00
  0.00000000E+00  0.00000000E+00  0.00000000E+00
  0.00000000E+00  0.00000000E+00  0.00000000E+00
  0.00000000E+00  0.00000000E+00  0.00000000E+00
  0.00000000E+00  0.00000000E+00  0.00000000E+00
  0.00000000E+00  0.00000000E+00  0.00000000E+00
  0.00000000E+00  0.00000000E+00  0.00000000E+00
  0.00000000E+00  0.00000000E+00  0.00000000E+00
  0.00000000E+00  0.00000000E+00  0.00000000E+00
  0.00000000E+00  0.00000000E+00  0.00000000E+00
  0.00000000E+00  0.00000000E+00  0.00000000E+00
  0.00000000E+00  0.00000000E+00  0.00000000E+00
  0.00000000E+00  0.00000000E+00  0.00000000E+00
  0.00000000E+00  0.00000000E+00  0.00000000E+00
  0.00000000E+00  0.00000000E+00  0.00000000E+00
  0.00000000E+00  0.00000000E+00  0.00000000E+00
  0.00000000E+00  0.00000000E+00  0.00000000E+00
  0.00000000E+00  0.00000000E+00  0.00000000E+00
