Au  O Pd                                
   1.00000000000000     
    11.0025815152626798    0.0000000000000000    0.0000000000000000
     5.5012907576313399    9.5285150994265617    0.0000000000000000
     0.0000000000000000    0.0000000000000000   26.1917850942952910
   Au   O    Pd
    24     8    24
Selective dynamics
Direct
  0.8333333333333357  0.5833333333333357  0.3817991009012260   F   F   F
  0.6713285800996580  0.6652257382518056  0.4797300895953738   T   T   T
  0.5833333333333357  0.0833333333333357  0.3817991009012260   F   F   F
  0.5833333333333357  0.3333333333333357  0.3817991009012260   F   F   F
 -0.0044368965744467  0.0060788868047333  0.5593120998650994   T   T   T
  0.4890918311445241  0.0076276404757016  0.5648317775173752   T   T   T
  0.0833333333333357  0.3333333333333357  0.3817991009012260   F   F   F
  0.6726431943897409  0.4139636560217598  0.4755273106380773   T   T   T
 -0.0265489010544555  0.2631332743612832  0.5559898156100134   T   T   T
  0.7320532092234432  0.5224147416015256  0.5806367253204033   T   T   T
  0.0833333333333357  0.5833333333333357  0.3817991009012260   F   F   F
 -0.0195328370817579  0.5317750114128473  0.6003502458565820   T   T   T
  0.9295659392355715  0.6606166479009773  0.4939334591758480   T   T   T
  0.4188440353927542  0.9154939781279234  0.4711634660109003   T   T   T
  0.9209022878946417  0.9123322040355715  0.4749532401110039   T   T   T
 -0.0220953360231681  0.7757207112503923  0.6020898350067985   T   T   T
  0.2445656664596664  0.7607194084657695  0.5586643464439737   T   T   T
  0.1683731589775156  0.1643633440959924  0.4739926641612311   T   T   T
  0.2065627816030329 -0.0067550291565836  0.6276094987931538   T   T   T
  0.5077140772312760  0.2463609873456443  0.5613912423755096   T   T   T
  0.8333333333333357  0.8333333333333357  0.3817991009012260   F   F   F
  0.8333333333333357  0.0833333333333357  0.3817991009012260   F   F   F
  0.2363895418262532  0.2472636453230841  0.5633113444564105   T   T   T
  0.7377815782859211  0.7678531296308576  0.5770493546844346   T   T   T
  0.0672816146667750  0.3231412352137962  0.6166712195705397   T   T   T
  0.5812890125736602  0.3463068536157103  0.6125126506039975   T   T   T
  0.0009324506093564  0.0624706851756084  0.6390419571646043   T   T   T
  0.7458865612630913  0.0642662731271517  0.6340401614720396   T   T   T
  0.1938780067020653  0.6618462555694529  0.6199453727795865   T   T   T
  0.3198680442578365  0.3469792663604736  0.6085422975570768   T   T   T
  0.4122308520122442 -0.0875686403461033  0.6236215278499788   T   T   T
  0.8072544752929466  0.3750370119719098  0.6375753233719123   T   T   T
  0.9162791599424222  0.1676949378242286  0.4700984074490466   T   T   T
  0.9201685794801905  0.4209767097187611  0.4713652429837457   T   T   T
  0.6703330129022379  0.9152681752014157  0.4764474747891983   T   T   T
  0.0833333333333357  0.8333333333333357  0.3817991009012260   F   F   F
  0.3333333333333357  0.0833333333333357  0.3817991009012260   F   F   F
  0.3333333333333357  0.3333333333333357  0.3817991009012260   F   F   F
  0.1720490395841132  0.4174982372532972  0.4741600491199863   T   T   T
  0.3333333333333357  0.5833333333333357  0.3817991009012260   F   F   F
  0.1719332611089163  0.6643953881309015  0.4713170604239472   T   T   T
  0.2379154640095106  0.5163217007379896  0.5642371566889927   T   T   T
  0.1696657809021246  0.9154003414896904  0.4705116864279236   T   T   T
  0.4176928237710635  0.1700033068731199  0.4742945697078715   T   T   T
  0.4172670724311208  0.4188194269227571  0.4719662782614525   T   T   T
  0.0833333333333357  0.0833333333333357  0.3817991009012260   F   F   F
  0.4836289834677150  0.7674686978337811  0.5664582890370398   T   T   T
  0.4201151296252060  0.6648579930360148  0.4733363164063460   T   T   T
  0.7863104384311228  0.2143351740181218  0.6285176331887973   T   T   T
  0.5063166788385309  0.5043789177096891  0.5621790484999895   T   T   T
  0.8333333333333357  0.3333333333333357  0.3817991009012260   F   F   F
  0.5833333333333357  0.8333333333333357  0.3817991009012260   F   F   F
  0.7492174831607733  0.0037278126884397  0.5646578267687233   T   T   T
  0.6679190349386244  0.1677615784260082  0.4753816163701853   T   T   T
  0.5833333333333357  0.5833333333333357  0.3817991009012260   F   F   F
  0.3333333333333357  0.8333333333333357  0.3817991009012260   F   F   F
 
  0.00000000E+00  0.00000000E+00  0.00000000E+00
  0.00000000E+00  0.00000000E+00  0.00000000E+00
  0.00000000E+00  0.00000000E+00  0.00000000E+00
  0.00000000E+00  0.00000000E+00  0.00000000E+00
  0.00000000E+00  0.00000000E+00  0.00000000E+00
  0.00000000E+00  0.00000000E+00  0.00000000E+00
  0.00000000E+00  0.00000000E+00  0.00000000E+00
  0.00000000E+00  0.00000000E+00  0.00000000E+00
  0.00000000E+00  0.00000000E+00  0.00000000E+00
  0.00000000E+00  0.00000000E+00  0.00000000E+00
  0.00000000E+00  0.00000000E+00  0.00000000E+00
  0.00000000E+00  0.00000000E+00  0.00000000E+00
  0.00000000E+00  0.00000000E+00  0.00000000E+00
  0.00000000E+00  0.00000000E+00  0.00000000E+00
  0.00000000E+00  0.00000000E+00  0.00000000E+00
  0.00000000E+00  0.00000000E+00  0.00000000E+00
  0.00000000E+00  0.00000000E+00  0.00000000E+00
  0.00000000E+00  0.00000000E+00  0.00000000E+00
  0.00000000E+00  0.00000000E+00  0.00000000E+00
  0.00000000E+00  0.00000000E+00  0.00000000E+00
  0.00000000E+00  0.00000000E+00  0.00000000E+00
  0.00000000E+00  0.00000000E+00  0.00000000E+00
  0.00000000E+00  0.00000000E+00  0.00000000E+00
  0.00000000E+00  0.00000000E+00  0.00000000E+00
  0.00000000E+00  0.00000000E+00  0.00000000E+00
  0.00000000E+00  0.00000000E+00  0.00000000E+00
  0.00000000E+00  0.00000000E+00  0.00000000E+00
  0.00000000E+00  0.00000000E+00  0.00000000E+00
  0.00000000E+00  0.00000000E+00  0.00000000E+00
  0.00000000E+00  0.00000000E+00  0.00000000E+00
  0.00000000E+00  0.00000000E+00  0.00000000E+00
  0.00000000E+00  0.00000000E+00  0.00000000E+00
  0.00000000E+00  0.00000000E+00  0.00000000E+00
  0.00000000E+00  0.00000000E+00  0.00000000E+00
  0.00000000E+00  0.00000000E+00  0.00000000E+00
  0.00000000E+00  0.00000000E+00  0.00000000E+00
  0.00000000E+00  0.00000000E+00  0.00000000E+00
  0.00000000E+00  0.00000000E+00  0.00000000E+00
  0.00000000E+00  0.00000000E+00  0.00000000E+00
  0.00000000E+00  0.00000000E+00  0.00000000E+00
  0.00000000E+00  0.00000000E+00  0.00000000E+00
  0.00000000E+00  0.00000000E+00  0.00000000E+00
  0.00000000E+00  0.00000000E+00  0.00000000E+00
  0.00000000E+00  0.00000000E+00  0.00000000E+00
  0.00000000E+00  0.00000000E+00  0.00000000E+00
  0.00000000E+00  0.00000000E+00  0.00000000E+00
  0.00000000E+00  0.00000000E+00  0.00000000E+00
  0.00000000E+00  0.00000000E+00  0.00000000E+00
  0.00000000E+00  0.00000000E+00  0.00000000E+00
  0.00000000E+00  0.00000000E+00  0.00000000E+00
  0.00000000E+00  0.00000000E+00  0.00000000E+00
  0.00000000E+00  0.00000000E+00  0.00000000E+00
  0.00000000E+00  0.00000000E+00  0.00000000E+00
  0.00000000E+00  0.00000000E+00  0.00000000E+00
  0.00000000E+00  0.00000000E+00  0.00000000E+00
  0.00000000E+00  0.00000000E+00  0.00000000E+00
