Au Pd                                   
   1.00000000000000     
    11.0025815152626798    0.0000000000000000    0.0000000000000000
     5.5012907576313399    9.5285150994265617    0.0000000000000000
     0.0000000000000000    0.0000000000000000   24.4917850942952882
   Au   Pd
    24    24
Direct
  0.0799641879930970  0.0862607325288699  0.3958171697884512
  0.2477027054046906  0.5008123616535425  0.6036237332705874
  0.3323249503430614  0.8340597965176302  0.3938755213209503
  0.1663682303437431  0.9186444899779572  0.4982637718052895
  0.6683224269648308  0.9154388181038748  0.4987917934939189
  0.5811627760928210  0.0874237021820628  0.3996561929033077
  0.5017571236363180 -0.0014752337717277  0.6015829558726867
  0.1661471878616095  0.6652084925891864  0.4996466351973257
  0.5025010960935453  0.2488819371441912  0.6029148068442610
  0.4188932628440830  0.6648148258717185  0.4999217710116011
  0.5026890711465744  0.4981259150344273  0.6044717066708171
  0.5827926026476844  0.8338607465911975  0.3969376206695817
  0.5023958591467251  0.7492504617572637  0.6007773161727624
  0.7530687725612281 -0.0023614132393182  0.6017932008461049
  0.7538313325311637  0.4984578459119852  0.6013435190548921
  0.5844884947706109  0.5801786989367685  0.3980763312542652
  0.2469775902493950  0.2517124508874705  0.6004117975520916
  0.2481396566740723  0.7499609832792451  0.6093540313422803
  0.2487723660926122  0.0009890680322189  0.6012573705955206
  0.0795134820659550  0.8347507670156893  0.3943350704671656
 -0.0011317267400836  0.0012909026733413  0.6013765445437650
  0.0820017465165867  0.5836450583193107  0.3958487555997707
  0.0833169764981758  0.3339597226320434  0.3970015919148872
  0.9167607723847992  0.4165986064776294  0.4983433925281844
  0.3329395782170385  0.5816192242003981  0.4042097732040654
  0.8319270541299988  0.8343483521016253  0.4015110821144460
  0.9164440952084894  0.1656412931816794  0.4990236692087449
  0.6676345995663833  0.6657194135234258  0.4987836088337045
  0.8321003581101239  0.5839520982739770  0.4015375478894306
  0.7520184377674403  0.2494957923709296  0.5961924808576065
  0.6670171123602983  0.4148207636550118  0.5008461418096680
  0.8307613855589769  0.3335602191169791  0.4028945686193122
  0.6673583128500608  0.1669786554931652  0.5009318061021787
  0.8307388875700024  0.0854300920241797  0.4043413980127682
 -0.0003519060327477  0.2505785013081667  0.5944147104105864
  0.1686837427983335  0.4153470956388436  0.4998376235705013
  0.9184308065575340  0.6659106654663268  0.4973522451146198
 -0.0004947759086090  0.5016774775719038  0.5944263330335725
  0.4186289325736402  0.4134395646391183  0.5031949122169561
  0.5812703638106432  0.3348947620545513  0.4060939761249042
  0.4164380096818721  0.1670463624420630  0.5012697109181086
  0.9165869517891427  0.9176995048826603  0.4993715726304316
 -0.0001172291545659  0.7484651445962250  0.5952405910697663
  0.3320500237601701  0.0853960408926785  0.4043637352056396
  0.1681132038842656  0.1668445289076750  0.4987825348203318
  0.3328380737913411  0.3350986177747555  0.4059753329754415
  0.4170414155200734  0.9173267790790419  0.4993936317166105
  0.7531816214667946  0.7482193136980410  0.5945884128201360
 
  0.00000000E+00  0.00000000E+00  0.00000000E+00
  0.00000000E+00  0.00000000E+00  0.00000000E+00
  0.00000000E+00  0.00000000E+00  0.00000000E+00
  0.00000000E+00  0.00000000E+00  0.00000000E+00
  0.00000000E+00  0.00000000E+00  0.00000000E+00
  0.00000000E+00  0.00000000E+00  0.00000000E+00
  0.00000000E+00  0.00000000E+00  0.00000000E+00
  0.00000000E+00  0.00000000E+00  0.00000000E+00
  0.00000000E+00  0.00000000E+00  0.00000000E+00
  0.00000000E+00  0.00000000E+00  0.00000000E+00
  0.00000000E+00  0.00000000E+00  0.00000000E+00
  0.00000000E+00  0.00000000E+00  0.00000000E+00
  0.00000000E+00  0.00000000E+00  0.00000000E+00
  0.00000000E+00  0.00000000E+00  0.00000000E+00
  0.00000000E+00  0.00000000E+00  0.00000000E+00
  0.00000000E+00  0.00000000E+00  0.00000000E+00
  0.00000000E+00  0.00000000E+00  0.00000000E+00
  0.00000000E+00  0.00000000E+00  0.00000000E+00
  0.00000000E+00  0.00000000E+00  0.00000000E+00
  0.00000000E+00  0.00000000E+00  0.00000000E+00
  0.00000000E+00  0.00000000E+00  0.00000000E+00
  0.00000000E+00  0.00000000E+00  0.00000000E+00
  0.00000000E+00  0.00000000E+00  0.00000000E+00
  0.00000000E+00  0.00000000E+00  0.00000000E+00
  0.00000000E+00  0.00000000E+00  0.00000000E+00
  0.00000000E+00  0.00000000E+00  0.00000000E+00
  0.00000000E+00  0.00000000E+00  0.00000000E+00
  0.00000000E+00  0.00000000E+00  0.00000000E+00
  0.00000000E+00  0.00000000E+00  0.00000000E+00
  0.00000000E+00  0.00000000E+00  0.00000000E+00
  0.00000000E+00  0.00000000E+00  0.00000000E+00
  0.00000000E+00  0.00000000E+00  0.00000000E+00
  0.00000000E+00  0.00000000E+00  0.00000000E+00
  0.00000000E+00  0.00000000E+00  0.00000000E+00
  0.00000000E+00  0.00000000E+00  0.00000000E+00
  0.00000000E+00  0.00000000E+00  0.00000000E+00
  0.00000000E+00  0.00000000E+00  0.00000000E+00
  0.00000000E+00  0.00000000E+00  0.00000000E+00
  0.00000000E+00  0.00000000E+00  0.00000000E+00
  0.00000000E+00  0.00000000E+00  0.00000000E+00
  0.00000000E+00  0.00000000E+00  0.00000000E+00
  0.00000000E+00  0.00000000E+00  0.00000000E+00
  0.00000000E+00  0.00000000E+00  0.00000000E+00
  0.00000000E+00  0.00000000E+00  0.00000000E+00
  0.00000000E+00  0.00000000E+00  0.00000000E+00
  0.00000000E+00  0.00000000E+00  0.00000000E+00
  0.00000000E+00  0.00000000E+00  0.00000000E+00
  0.00000000E+00  0.00000000E+00  0.00000000E+00
