Au Pd                                   
   1.00000000000000     
    11.0025815152626798    0.0000000000000000    0.0000000000000000
     5.5012907576313399    9.5285150994265617    0.0000000000000000
     0.0000000000000000    0.0000000000000000   24.4917850942952882
   Au   Pd
    24    24
Direct
  0.0833733977648630  0.0819915566166986  0.3915983052883022
  0.8312226867107558  0.8356620047075578  0.3994417136624270
  0.6696909102567300  0.6643021374275884  0.5001190348252412
  0.8328717552394042  0.5850700689656955  0.3974225874627276
  0.8306397154547694  0.3334860845948730  0.3964333945577778
  0.6673920379908569  0.1660008602745301  0.5011255674470334
  0.4185557236071430  0.9162032795678793  0.5000739804673757
  0.4184618086171301  0.6629439882245676  0.5010781722358867
  0.5787089747424323  0.5845041186881260  0.3944337732094923
  0.5038274087885002  0.2494451422583460  0.6060823440535150
  0.4180148405784432  0.1667264874251410  0.5010722173479711
  0.1654794050981335  0.9158511228434051  0.5008703333762201
  0.2490281363531188  0.5009135510737186  0.6044898101033853
  0.1656648016215745  0.6643819842601051  0.5015578137680158
  0.2478584986020922  0.2501124771228627  0.6041997617123509
  0.2516779162330460  0.7504946109654322  0.6082689410556161
  0.7505288393297154  0.7504526506097565  0.6023535246108134
  0.9153999775449876  0.1677873558454013  0.4998971957073755
  0.1656082487755657  0.1688756812719069  0.5000751219801940
  0.3371713268807341  0.0797687728430878  0.3922172014505650
 -0.0023529541525062  0.0020495800121315  0.6049315941399512
  0.0846434055027316  0.3336461305314219  0.3971388471118473
  0.0838740203034890  0.8321054939982804  0.3959908738838875
  0.3344389543167486  0.3350543510099434  0.4001398197726098
  0.5001542291759780  0.7502517629792929  0.5988501530744768
  0.8320816461352141  0.0840435696570602  0.4028070940445577
 -0.0027059156676290  0.2529202396799292  0.5968225113272962
  0.6670507984920266  0.4163684941570829  0.4986641793005332
  0.9173358972109412  0.4177064815733313  0.4983148654643692
  0.7500393336155204  0.2524298416143502  0.5974584484708374
  0.7498157196526998  0.4984996538429073  0.5957784393788987
  0.7506894308354111 -0.0003569558658123  0.5973716783955036
  0.0836051817439076  0.5835607872511515  0.4044917046525941
  0.1652762532396231  0.4174201955992483  0.5011379069826292
  0.5022347395158308  0.5007977835251989  0.5978440485901075
 -0.0017413347274277  0.5000639459775549  0.5952964845026536
  0.4173221601934234  0.4151061339765884  0.5022516608609282
  0.5827906592031477  0.3325108590534994  0.4041627708387375
  0.4995185118325049 -0.0001674298034624  0.5980423546149436
  0.9170020408751139  0.9145644684493976  0.4994631490992816
  0.5835174123678761  0.0837111998359653  0.4038033522914953
  0.6708662436324113  0.9138661228547282  0.5010323963691699
 -0.0009972993438259  0.7514596480797741  0.5972281130943949
  0.3330480447386506  0.8331595904466926  0.4021970417675256
  0.3322487150738528  0.5835063031035927  0.4045305043989163
  0.2500829081321154  0.0004816535156924  0.5982269289277975
  0.5824886178243817  0.8338152396177974  0.4028762649039882
  0.9164961700877936  0.6664509197399815  0.5003360194177834
 
  0.00000000E+00  0.00000000E+00  0.00000000E+00
  0.00000000E+00  0.00000000E+00  0.00000000E+00
  0.00000000E+00  0.00000000E+00  0.00000000E+00
  0.00000000E+00  0.00000000E+00  0.00000000E+00
  0.00000000E+00  0.00000000E+00  0.00000000E+00
  0.00000000E+00  0.00000000E+00  0.00000000E+00
  0.00000000E+00  0.00000000E+00  0.00000000E+00
  0.00000000E+00  0.00000000E+00  0.00000000E+00
  0.00000000E+00  0.00000000E+00  0.00000000E+00
  0.00000000E+00  0.00000000E+00  0.00000000E+00
  0.00000000E+00  0.00000000E+00  0.00000000E+00
  0.00000000E+00  0.00000000E+00  0.00000000E+00
  0.00000000E+00  0.00000000E+00  0.00000000E+00
  0.00000000E+00  0.00000000E+00  0.00000000E+00
  0.00000000E+00  0.00000000E+00  0.00000000E+00
  0.00000000E+00  0.00000000E+00  0.00000000E+00
  0.00000000E+00  0.00000000E+00  0.00000000E+00
  0.00000000E+00  0.00000000E+00  0.00000000E+00
  0.00000000E+00  0.00000000E+00  0.00000000E+00
  0.00000000E+00  0.00000000E+00  0.00000000E+00
  0.00000000E+00  0.00000000E+00  0.00000000E+00
  0.00000000E+00  0.00000000E+00  0.00000000E+00
  0.00000000E+00  0.00000000E+00  0.00000000E+00
  0.00000000E+00  0.00000000E+00  0.00000000E+00
  0.00000000E+00  0.00000000E+00  0.00000000E+00
  0.00000000E+00  0.00000000E+00  0.00000000E+00
  0.00000000E+00  0.00000000E+00  0.00000000E+00
  0.00000000E+00  0.00000000E+00  0.00000000E+00
  0.00000000E+00  0.00000000E+00  0.00000000E+00
  0.00000000E+00  0.00000000E+00  0.00000000E+00
  0.00000000E+00  0.00000000E+00  0.00000000E+00
  0.00000000E+00  0.00000000E+00  0.00000000E+00
  0.00000000E+00  0.00000000E+00  0.00000000E+00
  0.00000000E+00  0.00000000E+00  0.00000000E+00
  0.00000000E+00  0.00000000E+00  0.00000000E+00
  0.00000000E+00  0.00000000E+00  0.00000000E+00
  0.00000000E+00  0.00000000E+00  0.00000000E+00
  0.00000000E+00  0.00000000E+00  0.00000000E+00
  0.00000000E+00  0.00000000E+00  0.00000000E+00
  0.00000000E+00  0.00000000E+00  0.00000000E+00
  0.00000000E+00  0.00000000E+00  0.00000000E+00
  0.00000000E+00  0.00000000E+00  0.00000000E+00
  0.00000000E+00  0.00000000E+00  0.00000000E+00
  0.00000000E+00  0.00000000E+00  0.00000000E+00
  0.00000000E+00  0.00000000E+00  0.00000000E+00
  0.00000000E+00  0.00000000E+00  0.00000000E+00
  0.00000000E+00  0.00000000E+00  0.00000000E+00
  0.00000000E+00  0.00000000E+00  0.00000000E+00
