Au Pd                                   
   1.00000000000000     
    11.0025815152626798    0.0000000000000000    0.0000000000000000
     5.5012907576313399    9.5285150994265617    0.0000000000000000
     0.0000000000000000    0.0000000000000000   24.4917850942952882
   Au   Pd
    24    24
Direct
  0.0821316398394992  0.0834479998407080  0.3974126783742695
  0.2489351985568222  0.4969607552775202  0.6065707744911586
  0.3311973880319590  0.8343051337870593  0.3936290521771493
  0.4988017768970984  0.0045172088382736  0.6026343489734959
  0.5821273653959749  0.3309828421367948  0.3961605664992104
  0.4169302281530491  0.4139020576741096  0.5007226202636380
  0.5820452080993515  0.5847614263932841  0.3964257439833724
  0.4190481911662020  0.6653775785733711  0.4999282606958622
  0.5026799399498839  0.4985031829830416  0.6042166371588997
  0.4171173205614478  0.9164051467710783  0.4993688543168340
  0.5005790408422864  0.7509760120436532  0.6050056077128105
  0.6672616159423035  0.1651798413400359  0.5007514254368951
  0.8342083243432182  0.3326199460628037  0.3981780289325269
  0.7535988769506685  0.2486918514920090  0.6008472629851972
  0.8336257422971024  0.5844190353065429  0.3968099647405607
  0.8313287952161577  0.8361130713851637  0.3990713481521243
  0.1677710008998544  0.6652440894878547  0.5012755294663535
  0.3290631501825024  0.5834731989298908  0.3931505117838328
  0.2485336652022866  0.7533831783615059  0.6047087800886460
  0.7507380457883480  0.7494168596048830  0.6027556550112388
  0.3340679761781936  0.0862914924649254  0.3967716045609685
 -0.0011839794815329  0.7519368181767768  0.6086606744677958
  0.9177573015319789  0.9166768092752648  0.5015790148639671
  0.9162228460173329  0.6634426711673034  0.5013232262325670
  0.9199760758940880  0.1671921375555723  0.4992196596202668
  0.7530124945306018  0.4986647346916214  0.5938814346721095
  0.6677696885780295  0.6644524290073618  0.4994283338462472
  0.0012552738070779  0.0017338360515115  0.5967185793611973
  0.0844519398948070  0.3352071762835575  0.4041432868754694
  0.6699188927813964  0.4150840090090579  0.4986653921297614
  0.9166741445039963  0.4152678384473719  0.4982865088775024
  0.7508198803749694  0.0009139357436189  0.5991126709925829
  0.0023994976216566  0.2501622622024917  0.5936245469191880
  0.8325618278787654  0.0832627758633551  0.4032679423270636
  0.0831755420220445  0.5826110592925793  0.4046275789817549
  0.1669910390272024  0.4134140063852639  0.5018560884058632
 -0.0000824447783885  0.4977737608567175  0.5974639608294825
  0.0814360964909991  0.8337797372340617  0.4033297805639350
  0.5000788112742113  0.2504007722214315  0.5981423202069572
  0.1662897039529186  0.1673735447327437  0.4977067165662985
  0.4145752340882725  0.1652111518829294  0.5001690530099752
  0.5815962126377011  0.0842137194195761  0.4045577539819162
  0.6658313643565281  0.9152552997313346  0.5015814771051356
  0.1672924274978989  0.9175073657559797  0.4988315288163398
  0.2475049788913659  0.0034710662143195  0.5943287971998940
  0.3304193350185988  0.3353783452179687  0.4039772654269002
  0.2491318934663032  0.2499077731390263  0.5955697324467898
  0.5823334316269673  0.8347330556866944  0.4035514194679944
 
  0.00000000E+00  0.00000000E+00  0.00000000E+00
  0.00000000E+00  0.00000000E+00  0.00000000E+00
  0.00000000E+00  0.00000000E+00  0.00000000E+00
  0.00000000E+00  0.00000000E+00  0.00000000E+00
  0.00000000E+00  0.00000000E+00  0.00000000E+00
  0.00000000E+00  0.00000000E+00  0.00000000E+00
  0.00000000E+00  0.00000000E+00  0.00000000E+00
  0.00000000E+00  0.00000000E+00  0.00000000E+00
  0.00000000E+00  0.00000000E+00  0.00000000E+00
  0.00000000E+00  0.00000000E+00  0.00000000E+00
  0.00000000E+00  0.00000000E+00  0.00000000E+00
  0.00000000E+00  0.00000000E+00  0.00000000E+00
  0.00000000E+00  0.00000000E+00  0.00000000E+00
  0.00000000E+00  0.00000000E+00  0.00000000E+00
  0.00000000E+00  0.00000000E+00  0.00000000E+00
  0.00000000E+00  0.00000000E+00  0.00000000E+00
  0.00000000E+00  0.00000000E+00  0.00000000E+00
  0.00000000E+00  0.00000000E+00  0.00000000E+00
  0.00000000E+00  0.00000000E+00  0.00000000E+00
  0.00000000E+00  0.00000000E+00  0.00000000E+00
  0.00000000E+00  0.00000000E+00  0.00000000E+00
  0.00000000E+00  0.00000000E+00  0.00000000E+00
  0.00000000E+00  0.00000000E+00  0.00000000E+00
  0.00000000E+00  0.00000000E+00  0.00000000E+00
  0.00000000E+00  0.00000000E+00  0.00000000E+00
  0.00000000E+00  0.00000000E+00  0.00000000E+00
  0.00000000E+00  0.00000000E+00  0.00000000E+00
  0.00000000E+00  0.00000000E+00  0.00000000E+00
  0.00000000E+00  0.00000000E+00  0.00000000E+00
  0.00000000E+00  0.00000000E+00  0.00000000E+00
  0.00000000E+00  0.00000000E+00  0.00000000E+00
  0.00000000E+00  0.00000000E+00  0.00000000E+00
  0.00000000E+00  0.00000000E+00  0.00000000E+00
  0.00000000E+00  0.00000000E+00  0.00000000E+00
  0.00000000E+00  0.00000000E+00  0.00000000E+00
  0.00000000E+00  0.00000000E+00  0.00000000E+00
  0.00000000E+00  0.00000000E+00  0.00000000E+00
  0.00000000E+00  0.00000000E+00  0.00000000E+00
  0.00000000E+00  0.00000000E+00  0.00000000E+00
  0.00000000E+00  0.00000000E+00  0.00000000E+00
  0.00000000E+00  0.00000000E+00  0.00000000E+00
  0.00000000E+00  0.00000000E+00  0.00000000E+00
  0.00000000E+00  0.00000000E+00  0.00000000E+00
  0.00000000E+00  0.00000000E+00  0.00000000E+00
  0.00000000E+00  0.00000000E+00  0.00000000E+00
  0.00000000E+00  0.00000000E+00  0.00000000E+00
  0.00000000E+00  0.00000000E+00  0.00000000E+00
  0.00000000E+00  0.00000000E+00  0.00000000E+00
