Au Pd                                   
   1.00000000000000     
    11.0025815152626798    0.0000000000000000    0.0000000000000000
     5.5012907576313399    9.5285150994265617    0.0000000000000000
     0.0000000000000000    0.0000000000000000   24.4917850942952882
   Au   Pd
    24    24
Direct
  0.0846172321637006  0.0806387205277358  0.3959519651273844
  0.5001974413181276  0.5006151364608319  0.6011435687188368
  0.5815772248337362  0.8331729170431539  0.3970713382760309
  0.5821460794294109  0.0864800614419313  0.3991616613238442
  0.4974220914533330  0.7543775999086804  0.6023443234340252
  0.8331902717351032  0.0842862425984989  0.3972631751846742
  0.2489451568275771  0.5015539416085353  0.6046066779181715
  0.1671629571271040  0.6673876678260068  0.5001681735055490
  0.7496421422051713 -0.0020981836267340  0.5999984654843256
  0.1694202444190481  0.4152380101431640  0.5000050199653785
  0.5813900848593543  0.5811158725097891  0.3984986154354144
  0.1688230141819859  0.1641381008882573  0.5003420515406268
  0.4993966564166277  0.2480922285113541  0.6007539225714595
  0.0018107108964964  0.2482395232953235  0.6083405901271107
  0.8349771151606548  0.5817619682647396  0.3940383247996602
  0.6656438389861004  0.6680944180550688  0.5003150255805361
 -0.0006231853337033  0.5019128459108850  0.6036587938889352
  0.9143970614424136  0.1662532950868784  0.4997853397474030
  0.7497058881135424  0.4998118797883840  0.6056830068347493
  0.8363245638256793  0.8317906841540422  0.3993733062310659
  0.3333110062427971  0.0837562556384195  0.3964804475428892
  0.9152334913272145  0.4176646576540891  0.4998276772413524
  0.0017582859689525 -0.0021175141636634  0.6019160494905202
  0.0848082053959144  0.3342234543634376  0.3919584543780343
  0.4164061936216554  0.6677098751592466  0.5002379803954927
  0.7508764188574817  0.2490729951733905  0.5963161835581959
  0.6651599580082035  0.1669003536488018  0.5001154964038340
  0.8333966702864850  0.3332501086550841  0.4026838907284127
  0.4171851348260509  0.9164337667052019  0.4998119757122662
  0.6639767001632363  0.4182253270572406  0.5004264757786558
  0.2490913947713098  0.7517020325917931  0.5961155302325249
  0.5818952562411254  0.3348569930249889  0.4054166318572045
  0.0853865152114841  0.5826701432226177  0.4028543144212150
  0.9155974726921458  0.6680994217511127  0.4991594159690078
  0.0855530061903465  0.8315415428411410  0.4041356127530989
  0.9144192825382297  0.9173847729060646  0.5001181320184568
 -0.0008450479835773  0.7502080339294954  0.5961426968477208
  0.2501397620396970  0.0002993874412815  0.5971226066742863
  0.4192107510059205  0.4155523625833119  0.5013171593165252
  0.3340019117117370  0.3358960029636204  0.4037462608448171
  0.3324022704868375  0.5827172537325385  0.4042075902410903
  0.3328646743201134  0.8318841650032333  0.4044765314475094
  0.1669884044048044  0.9163576595070182  0.5000780630935623
  0.6668940169938669  0.9179406803816420  0.4994764043248647
  0.4197917554888116  0.1647260977592378  0.4991547404478541
  0.4980979557448279  0.0006309669406502  0.5952288680506306
  0.2503465804595405  0.2486264756637045  0.5970594405862117
  0.7498853829233245  0.7509237974687740  0.5959120239485844
 
  0.00000000E+00  0.00000000E+00  0.00000000E+00
  0.00000000E+00  0.00000000E+00  0.00000000E+00
  0.00000000E+00  0.00000000E+00  0.00000000E+00
  0.00000000E+00  0.00000000E+00  0.00000000E+00
  0.00000000E+00  0.00000000E+00  0.00000000E+00
  0.00000000E+00  0.00000000E+00  0.00000000E+00
  0.00000000E+00  0.00000000E+00  0.00000000E+00
  0.00000000E+00  0.00000000E+00  0.00000000E+00
  0.00000000E+00  0.00000000E+00  0.00000000E+00
  0.00000000E+00  0.00000000E+00  0.00000000E+00
  0.00000000E+00  0.00000000E+00  0.00000000E+00
  0.00000000E+00  0.00000000E+00  0.00000000E+00
  0.00000000E+00  0.00000000E+00  0.00000000E+00
  0.00000000E+00  0.00000000E+00  0.00000000E+00
  0.00000000E+00  0.00000000E+00  0.00000000E+00
  0.00000000E+00  0.00000000E+00  0.00000000E+00
  0.00000000E+00  0.00000000E+00  0.00000000E+00
  0.00000000E+00  0.00000000E+00  0.00000000E+00
  0.00000000E+00  0.00000000E+00  0.00000000E+00
  0.00000000E+00  0.00000000E+00  0.00000000E+00
  0.00000000E+00  0.00000000E+00  0.00000000E+00
  0.00000000E+00  0.00000000E+00  0.00000000E+00
  0.00000000E+00  0.00000000E+00  0.00000000E+00
  0.00000000E+00  0.00000000E+00  0.00000000E+00
  0.00000000E+00  0.00000000E+00  0.00000000E+00
  0.00000000E+00  0.00000000E+00  0.00000000E+00
  0.00000000E+00  0.00000000E+00  0.00000000E+00
  0.00000000E+00  0.00000000E+00  0.00000000E+00
  0.00000000E+00  0.00000000E+00  0.00000000E+00
  0.00000000E+00  0.00000000E+00  0.00000000E+00
  0.00000000E+00  0.00000000E+00  0.00000000E+00
  0.00000000E+00  0.00000000E+00  0.00000000E+00
  0.00000000E+00  0.00000000E+00  0.00000000E+00
  0.00000000E+00  0.00000000E+00  0.00000000E+00
  0.00000000E+00  0.00000000E+00  0.00000000E+00
  0.00000000E+00  0.00000000E+00  0.00000000E+00
  0.00000000E+00  0.00000000E+00  0.00000000E+00
  0.00000000E+00  0.00000000E+00  0.00000000E+00
  0.00000000E+00  0.00000000E+00  0.00000000E+00
  0.00000000E+00  0.00000000E+00  0.00000000E+00
  0.00000000E+00  0.00000000E+00  0.00000000E+00
  0.00000000E+00  0.00000000E+00  0.00000000E+00
  0.00000000E+00  0.00000000E+00  0.00000000E+00
  0.00000000E+00  0.00000000E+00  0.00000000E+00
  0.00000000E+00  0.00000000E+00  0.00000000E+00
  0.00000000E+00  0.00000000E+00  0.00000000E+00
  0.00000000E+00  0.00000000E+00  0.00000000E+00
  0.00000000E+00  0.00000000E+00  0.00000000E+00
