Au Pd                                   
   1.00000000000000     
    11.0025815152626798    0.0000000000000000    0.0000000000000000
     5.5012907576313399    9.5285150994265617    0.0000000000000000
     0.0000000000000000    0.0000000000000000   24.4917850942952882
   Au   Pd
    24    24
Direct
  0.0795458663951158  0.0842303834250345  0.3976574271969501
  0.5013440423523058 -0.0020744383496498  0.6026866913716993
  0.5842177379193860  0.3300461214130322  0.3984112741208712
  0.4141304793688314  0.4171741260155026  0.5007314937436305
  0.4985492511933753  0.2498896554198659  0.6036510675979038
  0.5825491672694850  0.5826933056552166  0.3948914617186928
  0.4997029523604867  0.5010448670510921  0.6046638187553328
  0.1634385575491909  0.9169668457131661  0.5003918712738260
  0.5856785797456939  0.8358988488038243  0.3940373975841512
  0.7541218487425475 -0.0039830003452575  0.6025702360059804
  0.6674979008637398  0.4154925798345204  0.5001672162106313
  0.7542956416498432  0.2473336754468654  0.6035756479950944
  0.8338889034581554  0.5838429343088583  0.3951109929982338
  0.6659400890485766  0.6673579639074694  0.4989200929173753
  0.7522664540306643  0.5000140210831383  0.6039869934129268
  0.4149872860920893  0.9187248654251843  0.4994501093156213
  0.3316845307015157  0.8322903673880828  0.3947986522114001
  0.2489779287798908  0.7487667928774795  0.6032147513580733
  0.0831029947368701  0.3343609578706090  0.3983163216419792
  0.2483559429375283  0.0017653752214758  0.6028658811564641
  0.0860606210445175  0.5852265479407368  0.3974828212109089
  0.3346921310127580  0.0855467438143809  0.3975118456602743
  0.9168366955001391  0.6679459880310119  0.4988966726870219
  0.0033978899258756  0.4981897806134746  0.5999301630294156
  0.3334311923880197  0.5838798766758172  0.4037394879834818
  0.8338818043534401  0.8368024974098802  0.4036748915125212
  0.9157983251128056  0.1672576731351214  0.5003255358202301
  0.0010752205326974 -0.0011107310850019  0.5978659281951766
  0.9173338918540156  0.4152648634819976  0.4995621170914290
  0.0018568895253262  0.2483956039507909  0.5952444366220389
  0.8327132547052712  0.3327978063177035  0.4028491680993033
  0.6668385543000214  0.1652576773596450  0.5023635641982871
  0.8330637664588874  0.0818276850740761  0.4059719852962381
  0.5003814142816153  0.7493257295676743  0.5966533248079186
  0.0820909174614934  0.8339344742455994  0.4038465654154055
  0.4147753311142900  0.6670468187133092  0.5000523750992721
  0.9131681776110766  0.9195419503839879  0.5011654909419390
  0.0014829276499801  0.7486636842117239  0.5960861899512434
  0.1643900883560371  0.1692234876274299  0.4984727886812663
  0.4161254600885232  0.1667555235592482  0.5006487683751458
  0.5847579461145808  0.0830899622190412  0.4056670842053223
  0.6649054415466747  0.9197682016887344  0.5008414168925521
  0.3347933767970670  0.3336671772141430  0.4036031567221707
  0.1655982274753253  0.4155133059145353  0.4990352608924892
  0.2499502257072147  0.4991840770795791  0.5970161282370589
  0.1648613612055999  0.6670836229374580  0.5002290960161317
  0.2502605961487989  0.2490860401108685  0.5948124285957345
  0.7512021165326561  0.7489976836415220  0.5963519091731856
 
  0.00000000E+00  0.00000000E+00  0.00000000E+00
  0.00000000E+00  0.00000000E+00  0.00000000E+00
  0.00000000E+00  0.00000000E+00  0.00000000E+00
  0.00000000E+00  0.00000000E+00  0.00000000E+00
  0.00000000E+00  0.00000000E+00  0.00000000E+00
  0.00000000E+00  0.00000000E+00  0.00000000E+00
  0.00000000E+00  0.00000000E+00  0.00000000E+00
  0.00000000E+00  0.00000000E+00  0.00000000E+00
  0.00000000E+00  0.00000000E+00  0.00000000E+00
  0.00000000E+00  0.00000000E+00  0.00000000E+00
  0.00000000E+00  0.00000000E+00  0.00000000E+00
  0.00000000E+00  0.00000000E+00  0.00000000E+00
  0.00000000E+00  0.00000000E+00  0.00000000E+00
  0.00000000E+00  0.00000000E+00  0.00000000E+00
  0.00000000E+00  0.00000000E+00  0.00000000E+00
  0.00000000E+00  0.00000000E+00  0.00000000E+00
  0.00000000E+00  0.00000000E+00  0.00000000E+00
  0.00000000E+00  0.00000000E+00  0.00000000E+00
  0.00000000E+00  0.00000000E+00  0.00000000E+00
  0.00000000E+00  0.00000000E+00  0.00000000E+00
  0.00000000E+00  0.00000000E+00  0.00000000E+00
  0.00000000E+00  0.00000000E+00  0.00000000E+00
  0.00000000E+00  0.00000000E+00  0.00000000E+00
  0.00000000E+00  0.00000000E+00  0.00000000E+00
  0.00000000E+00  0.00000000E+00  0.00000000E+00
  0.00000000E+00  0.00000000E+00  0.00000000E+00
  0.00000000E+00  0.00000000E+00  0.00000000E+00
  0.00000000E+00  0.00000000E+00  0.00000000E+00
  0.00000000E+00  0.00000000E+00  0.00000000E+00
  0.00000000E+00  0.00000000E+00  0.00000000E+00
  0.00000000E+00  0.00000000E+00  0.00000000E+00
  0.00000000E+00  0.00000000E+00  0.00000000E+00
  0.00000000E+00  0.00000000E+00  0.00000000E+00
  0.00000000E+00  0.00000000E+00  0.00000000E+00
  0.00000000E+00  0.00000000E+00  0.00000000E+00
  0.00000000E+00  0.00000000E+00  0.00000000E+00
  0.00000000E+00  0.00000000E+00  0.00000000E+00
  0.00000000E+00  0.00000000E+00  0.00000000E+00
  0.00000000E+00  0.00000000E+00  0.00000000E+00
  0.00000000E+00  0.00000000E+00  0.00000000E+00
  0.00000000E+00  0.00000000E+00  0.00000000E+00
  0.00000000E+00  0.00000000E+00  0.00000000E+00
  0.00000000E+00  0.00000000E+00  0.00000000E+00
  0.00000000E+00  0.00000000E+00  0.00000000E+00
  0.00000000E+00  0.00000000E+00  0.00000000E+00
  0.00000000E+00  0.00000000E+00  0.00000000E+00
  0.00000000E+00  0.00000000E+00  0.00000000E+00
  0.00000000E+00  0.00000000E+00  0.00000000E+00
