Au Pd                                   
   1.00000000000000     
    11.0025815152626798    0.0000000000000000    0.0000000000000000
     5.5012907576313399    9.5285150994265617    0.0000000000000000
     0.0000000000000000    0.0000000000000000   24.4917850942952882
   Au   Pd
    24    24
Direct
  0.2519177831311218  0.7486893818689243  0.6076195122648581
  0.4990334854617213  0.2518921664259416  0.6045038485819424
  0.5864317856719278  0.8289166598747014  0.3910289237250480
  0.4165969673784589  0.9167102872741488  0.4990670719629313
  0.4158747595273003  0.1680174784016414  0.4995670005648521
  0.5827613420724629  0.0847158604529009  0.3920057826363780
  0.6686451989565019  0.9151658514468154  0.4976198757058446
  0.1676472929159112  0.9171784341931151  0.5002682944280932
  0.3343923210879531  0.8301142661716906  0.3923721920998927
  0.8325150743580277  0.0865609112691770  0.3928088592744409
  0.1682383440028242  0.6642517109856968  0.5008568106888130
  0.6663730930621365  0.1696753521471269  0.4996755309056024
  0.1652593403327104  0.4162354943509012  0.5007490337658156
  0.2502539324848154  0.0037069446840834  0.6053677357737662
  0.4191208256095378  0.6630978756430428  0.5007589908924405
  0.0826102827297356  0.5805542250393181  0.3963145954320685
  0.3295197075784776  0.0854707158691694  0.3952660506668865
  0.9177998246605522  0.1688979013542156  0.5010508743530875
 -0.0029350398962089  0.7493433687919248  0.6038933124116751
  0.9176853089082759  0.9155890272178002  0.4986425314289122
  0.0832180608543556  0.8319219605179875  0.3934859033759692
 -0.0029501164831428  0.0030068652391777  0.6073046862725215
  0.6705591260136617  0.6637489109922374  0.4998204432203038
  0.7496674647219704  0.5007380821435322  0.6041890812806769
  0.8333531669971193  0.8318049519557446  0.4000547366975095
  0.4997525771674031  0.7515479619966626  0.5976831631658424
  0.4995822953631327  0.5006388380540920  0.5989315553479397
  0.8335017919534382  0.5806817591386009  0.4034621792631894
  0.7495066928646494  0.2513946742992648  0.5985782143004432
  0.7486975974289360  0.0013845931589256  0.5965472248220700
  0.6680858063231609  0.4168116063728284  0.5018392892107881
  0.8334831834923819  0.3348480407443785  0.4049740685686350
  0.0822409961026374  0.0835750575195415  0.4028631929191151
  0.4183720451137595  0.4156996216104352  0.5023126077735399
  0.5814058611128380  0.3349101869093838  0.4042181482579085
  0.5005010976327274  0.0008848292829250  0.5963930714891034
  0.2492748955281845  0.5001737373022839  0.5990998785827883
  0.3349765764498941  0.5808600811062200  0.4037830617443946
  0.2476829359423275  0.2522757851939977  0.5982797305056191
  0.3333704536611667  0.3337318380533674  0.4029553314650056
  0.1667703944805172  0.1667962953934840  0.5012268121228405
  0.0000843745042552  0.5000446968179407  0.5975622409197815
  0.9187366601445074  0.6651809023553972  0.4997103722229300
 -0.0007781087424953  0.2519829778085471  0.5985152103552421
  0.9164538657340098  0.4167997859112823  0.5021429070479468
  0.0816008086521160  0.3322972344932216  0.4048009592074603
  0.5851167300083422  0.5793172037752446  0.4033172976697879
  0.7479911369439023  0.7521576083909591  0.5965118046272985
 
  0.00000000E+00  0.00000000E+00  0.00000000E+00
  0.00000000E+00  0.00000000E+00  0.00000000E+00
  0.00000000E+00  0.00000000E+00  0.00000000E+00
  0.00000000E+00  0.00000000E+00  0.00000000E+00
  0.00000000E+00  0.00000000E+00  0.00000000E+00
  0.00000000E+00  0.00000000E+00  0.00000000E+00
  0.00000000E+00  0.00000000E+00  0.00000000E+00
  0.00000000E+00  0.00000000E+00  0.00000000E+00
  0.00000000E+00  0.00000000E+00  0.00000000E+00
  0.00000000E+00  0.00000000E+00  0.00000000E+00
  0.00000000E+00  0.00000000E+00  0.00000000E+00
  0.00000000E+00  0.00000000E+00  0.00000000E+00
  0.00000000E+00  0.00000000E+00  0.00000000E+00
  0.00000000E+00  0.00000000E+00  0.00000000E+00
  0.00000000E+00  0.00000000E+00  0.00000000E+00
  0.00000000E+00  0.00000000E+00  0.00000000E+00
  0.00000000E+00  0.00000000E+00  0.00000000E+00
  0.00000000E+00  0.00000000E+00  0.00000000E+00
  0.00000000E+00  0.00000000E+00  0.00000000E+00
  0.00000000E+00  0.00000000E+00  0.00000000E+00
  0.00000000E+00  0.00000000E+00  0.00000000E+00
  0.00000000E+00  0.00000000E+00  0.00000000E+00
  0.00000000E+00  0.00000000E+00  0.00000000E+00
  0.00000000E+00  0.00000000E+00  0.00000000E+00
  0.00000000E+00  0.00000000E+00  0.00000000E+00
  0.00000000E+00  0.00000000E+00  0.00000000E+00
  0.00000000E+00  0.00000000E+00  0.00000000E+00
  0.00000000E+00  0.00000000E+00  0.00000000E+00
  0.00000000E+00  0.00000000E+00  0.00000000E+00
  0.00000000E+00  0.00000000E+00  0.00000000E+00
  0.00000000E+00  0.00000000E+00  0.00000000E+00
  0.00000000E+00  0.00000000E+00  0.00000000E+00
  0.00000000E+00  0.00000000E+00  0.00000000E+00
  0.00000000E+00  0.00000000E+00  0.00000000E+00
  0.00000000E+00  0.00000000E+00  0.00000000E+00
  0.00000000E+00  0.00000000E+00  0.00000000E+00
  0.00000000E+00  0.00000000E+00  0.00000000E+00
  0.00000000E+00  0.00000000E+00  0.00000000E+00
  0.00000000E+00  0.00000000E+00  0.00000000E+00
  0.00000000E+00  0.00000000E+00  0.00000000E+00
  0.00000000E+00  0.00000000E+00  0.00000000E+00
  0.00000000E+00  0.00000000E+00  0.00000000E+00
  0.00000000E+00  0.00000000E+00  0.00000000E+00
  0.00000000E+00  0.00000000E+00  0.00000000E+00
  0.00000000E+00  0.00000000E+00  0.00000000E+00
  0.00000000E+00  0.00000000E+00  0.00000000E+00
  0.00000000E+00  0.00000000E+00  0.00000000E+00
  0.00000000E+00  0.00000000E+00  0.00000000E+00
