Au  O Pd                                
   1.00000000000000     
    11.0025815152626798    0.0000000000000000    0.0000000000000000
     5.5012907576313399    9.5285150994265617    0.0000000000000000
     0.0000000000000000    0.0000000000000000   26.1917850942952910
   Au   O    Pd
    24     8    24
Selective dynamics
Direct
  0.2551485270262314  0.4813154193386440  0.5647045867602862   T   T   T
  0.4171997149884299  0.1639165760137193  0.4745744368544032   T   T   T
  0.4966132982014462  0.0073785574585077  0.5629417561629882   T   T   T
  0.9176003293846521  0.1621356119551088  0.4746154473176297   T   T   T
 -0.0021029665976593  0.0043474739017274  0.5659115941310022   T   T   T
  0.7568574003085502  0.4859672243596209  0.5631384114475113   T   T   T
  0.8333333333333357  0.5833333333333357  0.3817991009012260   F   F   F
  0.7540700672687303  0.2719331530715476  0.6089658237550160   T   T   T
  0.0015685880862006  0.2486626390797670  0.5636272147268160   T   T   T
  0.6667490420190403  0.4169783005345062  0.4713850821219457   T   T   T
  0.8333333333333357  0.3333333333333357  0.3817991009012260   F   F   F
  0.7487111663503102  0.0005475718434666  0.5643127061285513   T   T   T
  0.2598220701016235  0.7262274281529912  0.5713325369641273   T   T   T
  0.0833333333333357  0.8333333333333357  0.3817991009012260   F   F   F
  0.1665173962675424  0.6655276187141416  0.4759230708758983   T   T   T
  0.5094884927574271  0.7336939280634216  0.5672407632635736   T   T   T
  0.5833333333333357  0.8333333333333357  0.3817991009012260   F   F   F
  0.3333333333333357  0.0833333333333357  0.3817991009012260   F   F   F
  0.5134678546300547  0.4825814100886916  0.5656560841096517   T   T   T
  0.2425107965417763  0.0091707178285764  0.5626158606282295   T   T   T
  0.5126603842692022  0.2420256127337980  0.5692381845477149   T   T   T
  0.4188656390313115  0.4147207466396591  0.4703480741769089   T   T   T
  0.1637649994148594  0.4137627109399105  0.4714529893440386   T   T   T
  0.8333333333333357  0.0833333333333357  0.3817991009012260   F   F   F
  0.0379440576036418  0.4599713858403920  0.6361582605932092   T   T   T
  0.0917079504894574  0.8030636926207623  0.6184477271787060   T   T   T
  0.3283051639860202  0.0874648751475354  0.6191006540322305   T   T   T
  0.3439546987319036  0.3359209215285395  0.6266266396540616   T   T   T
  0.8455962110950433  0.8055922709858561  0.6121464476144869   T   T   T
  0.5960955813644707  0.8209601359287030  0.6141033001146101   T   T   T
  0.8215961734631174  0.0694526291835923  0.6267843539821258   T   T   T
  0.3383079931771465  0.8249599241365811  0.6160791837381329   T   T   T
  0.4164972952161847  0.6682016145653942  0.4759320559799093   T   T   T
  0.5833333333333357  0.5833333333333357  0.3817991009012260   F   F   F
  0.0833333333333357  0.0833333333333357  0.3817991009012260   F   F   F
  0.5833333333333357  0.3333333333333357  0.3817991009012260   F   F   F
  0.5833333333333357  0.0833333333333357  0.3817991009012260   F   F   F
  0.7600904999889339  0.7295455053737067  0.5672950484874453   T   T   T
  0.3333333333333357  0.5833333333333357  0.3817991009012260   F   F   F
  0.1696066209301298  0.9154248489956724  0.4756139754698007   T   T   T
  0.1967092619353796  0.2811498279997128  0.6271568001318120   T   T   T
  0.4175489546358549  0.9133096051367078  0.4717056433163322   T   T   T
  0.0094694186918888  0.7315773464991084  0.5681892803365781   T   T   T
  0.9173580167029312  0.9120741756464484  0.4727417505476813   T   T   T
  0.6673430084010248  0.1639844772981713  0.4759745123682223   T   T   T
  0.0041293099990035  0.4895996009548568  0.5635114070534442   T   T   T
  0.9151235162661775  0.6663663639318401  0.4762260904346816   T   T   T
  0.0833333333333357  0.5833333333333357  0.3817991009012260   F   F   F
  0.9172832394171766  0.4168260057800142  0.4726459391790837   T   T   T
  0.0833333333333357  0.3333333333333357  0.3817991009012260   F   F   F
  0.6656358349750530  0.6692373304550094  0.4756902925666633   T   T   T
  0.8333333333333357  0.8333333333333357  0.3817991009012260   F   F   F
  0.6699493819146808  0.9137121373464430  0.4764771097419741   T   T   T
  0.3333333333333357  0.8333333333333357  0.3817991009012260   F   F   F
  0.1672193445623436  0.1643806884470417  0.4730200545950178   T   T   T
  0.3333333333333357  0.3333333333333357  0.3817991009012260   F   F   F
 
  0.00000000E+00  0.00000000E+00  0.00000000E+00
  0.00000000E+00  0.00000000E+00  0.00000000E+00
  0.00000000E+00  0.00000000E+00  0.00000000E+00
  0.00000000E+00  0.00000000E+00  0.00000000E+00
  0.00000000E+00  0.00000000E+00  0.00000000E+00
  0.00000000E+00  0.00000000E+00  0.00000000E+00
  0.00000000E+00  0.00000000E+00  0.00000000E+00
  0.00000000E+00  0.00000000E+00  0.00000000E+00
  0.00000000E+00  0.00000000E+00  0.00000000E+00
  0.00000000E+00  0.00000000E+00  0.00000000E+00
  0.00000000E+00  0.00000000E+00  0.00000000E+00
  0.00000000E+00  0.00000000E+00  0.00000000E+00
  0.00000000E+00  0.00000000E+00  0.00000000E+00
  0.00000000E+00  0.00000000E+00  0.00000000E+00
  0.00000000E+00  0.00000000E+00  0.00000000E+00
  0.00000000E+00  0.00000000E+00  0.00000000E+00
  0.00000000E+00  0.00000000E+00  0.00000000E+00
  0.00000000E+00  0.00000000E+00  0.00000000E+00
  0.00000000E+00  0.00000000E+00  0.00000000E+00
  0.00000000E+00  0.00000000E+00  0.00000000E+00
  0.00000000E+00  0.00000000E+00  0.00000000E+00
  0.00000000E+00  0.00000000E+00  0.00000000E+00
  0.00000000E+00  0.00000000E+00  0.00000000E+00
  0.00000000E+00  0.00000000E+00  0.00000000E+00
  0.00000000E+00  0.00000000E+00  0.00000000E+00
  0.00000000E+00  0.00000000E+00  0.00000000E+00
  0.00000000E+00  0.00000000E+00  0.00000000E+00
  0.00000000E+00  0.00000000E+00  0.00000000E+00
  0.00000000E+00  0.00000000E+00  0.00000000E+00
  0.00000000E+00  0.00000000E+00  0.00000000E+00
  0.00000000E+00  0.00000000E+00  0.00000000E+00
  0.00000000E+00  0.00000000E+00  0.00000000E+00
  0.00000000E+00  0.00000000E+00  0.00000000E+00
  0.00000000E+00  0.00000000E+00  0.00000000E+00
  0.00000000E+00  0.00000000E+00  0.00000000E+00
  0.00000000E+00  0.00000000E+00  0.00000000E+00
  0.00000000E+00  0.00000000E+00  0.00000000E+00
  0.00000000E+00  0.00000000E+00  0.00000000E+00
  0.00000000E+00  0.00000000E+00  0.00000000E+00
  0.00000000E+00  0.00000000E+00  0.00000000E+00
  0.00000000E+00  0.00000000E+00  0.00000000E+00
  0.00000000E+00  0.00000000E+00  0.00000000E+00
  0.00000000E+00  0.00000000E+00  0.00000000E+00
  0.00000000E+00  0.00000000E+00  0.00000000E+00
  0.00000000E+00  0.00000000E+00  0.00000000E+00
  0.00000000E+00  0.00000000E+00  0.00000000E+00
  0.00000000E+00  0.00000000E+00  0.00000000E+00
  0.00000000E+00  0.00000000E+00  0.00000000E+00
  0.00000000E+00  0.00000000E+00  0.00000000E+00
  0.00000000E+00  0.00000000E+00  0.00000000E+00
  0.00000000E+00  0.00000000E+00  0.00000000E+00
  0.00000000E+00  0.00000000E+00  0.00000000E+00
  0.00000000E+00  0.00000000E+00  0.00000000E+00
  0.00000000E+00  0.00000000E+00  0.00000000E+00
  0.00000000E+00  0.00000000E+00  0.00000000E+00
  0.00000000E+00  0.00000000E+00  0.00000000E+00
