Au Pd                                   
   1.00000000000000     
    11.0025815152626798    0.0000000000000000    0.0000000000000000
     5.5012907576313399    9.5285150994265617    0.0000000000000000
     0.0000000000000000    0.0000000000000000   24.4917850942952882
   Au   Pd
    24    24
Direct
  0.0835261985196544  0.0824016910567691  0.3950522109331046
  0.4171211513977481  0.6646152194383435  0.5016071558512362
  0.5027178713472256 -0.0025408785168726  0.6016733598902601
  0.5851748926097413  0.8350928224259789  0.3954002449813906
  0.4143501026249439  0.9188903370814463  0.4991172661127242
  0.4985825886758577  0.7496547498327547  0.6070239074452579
  0.3332889281132364  0.8302139123213607  0.3947521214677194
  0.2478582781578300  0.5033466593493322  0.6060346038781604
  0.1664027746893244  0.6658247732936425  0.5007732821748608
  0.8298190135790204  0.0837528132215515  0.3966630292278583
  0.2470605872365510  0.2487330874022708  0.6012469090403822
  0.1684353930866776  0.4147456392334643  0.4997945659674292
  0.8287186252588579  0.3369748385463844  0.3957683961254311
  0.5002645387395998  0.2499310047230701  0.6034955333091974
  0.9135934021998960  0.9164817575284873  0.4993253495630699
  0.7504994441603284  0.2490377633384518  0.6037079108498106
  0.8347230316948702  0.5861339264404481  0.3933946979402494
  0.6672718179594980  0.6668595942100723  0.5001565253100342
  0.7516805831650603  0.4995221350640089  0.6044698219127781
  0.9164058821857862  0.4164219225741370  0.4988598515248397
  0.0855411351319637  0.3360670991681588  0.3935738027764860
  0.0031106189968970 -0.0036983534623150  0.6028066204729802
  0.9164630337866151  0.1657930879192255  0.4991235184086040
  0.3353442736938069  0.0864589781307278  0.3971880430467734
  0.5824597257463613  0.5841505143611827  0.4040178306970268
  0.6637258209875648  0.1680014247891694  0.5018862360369235
  0.6665279573470041  0.4142699210147923  0.5026639189025794
  0.8345773447727601  0.8338377668734727  0.4014984746578010
  0.4996020500407165  0.5006062824267908  0.6001102653881155
  0.7516919386262444 -0.0023683343952487  0.5967617477557924
  0.2501170580273782  0.7497581766493853  0.5982378228046732
  0.5814843622873410  0.3359782548588634  0.4070417260757592
  0.0010983900176031  0.2481692989380101  0.5955828346979691
  0.0854742501357855  0.5854711749940317  0.4021375874013253
  0.9149017181772121  0.6668669838667669  0.4978815368673033
 -0.0010347621461561  0.5010253111921311  0.5961372778971027
  0.0830721465471355  0.8324158468565828  0.4019963848583651
 -0.0018994171338538  0.7492535513234603  0.5969760422535844
  0.4188992685577742  0.4138012368177413  0.5033860264604758
  0.1671688296054771  0.1661779068434686  0.4973795982272109
  0.3360430512932152  0.3355010539876819  0.4053241395485291
  0.3340110221072455  0.5821131394667234  0.4043035126742085
  0.1657601276497746  0.9169788926350128  0.4983690162528145
  0.6650778012672597  0.9176738323076036  0.4992127860880168
  0.5830967445117022  0.0861111502981999  0.4053526781509803
  0.4184147883989913  0.1657977416190430  0.5016045106478245
  0.2492445470865596 -0.0012694011017216  0.5951364023643517
  0.7525310690779136  0.7489636930559573  0.5959929150806300
 
  0.00000000E+00  0.00000000E+00  0.00000000E+00
  0.00000000E+00  0.00000000E+00  0.00000000E+00
  0.00000000E+00  0.00000000E+00  0.00000000E+00
  0.00000000E+00  0.00000000E+00  0.00000000E+00
  0.00000000E+00  0.00000000E+00  0.00000000E+00
  0.00000000E+00  0.00000000E+00  0.00000000E+00
  0.00000000E+00  0.00000000E+00  0.00000000E+00
  0.00000000E+00  0.00000000E+00  0.00000000E+00
  0.00000000E+00  0.00000000E+00  0.00000000E+00
  0.00000000E+00  0.00000000E+00  0.00000000E+00
  0.00000000E+00  0.00000000E+00  0.00000000E+00
  0.00000000E+00  0.00000000E+00  0.00000000E+00
  0.00000000E+00  0.00000000E+00  0.00000000E+00
  0.00000000E+00  0.00000000E+00  0.00000000E+00
  0.00000000E+00  0.00000000E+00  0.00000000E+00
  0.00000000E+00  0.00000000E+00  0.00000000E+00
  0.00000000E+00  0.00000000E+00  0.00000000E+00
  0.00000000E+00  0.00000000E+00  0.00000000E+00
  0.00000000E+00  0.00000000E+00  0.00000000E+00
  0.00000000E+00  0.00000000E+00  0.00000000E+00
  0.00000000E+00  0.00000000E+00  0.00000000E+00
  0.00000000E+00  0.00000000E+00  0.00000000E+00
  0.00000000E+00  0.00000000E+00  0.00000000E+00
  0.00000000E+00  0.00000000E+00  0.00000000E+00
  0.00000000E+00  0.00000000E+00  0.00000000E+00
  0.00000000E+00  0.00000000E+00  0.00000000E+00
  0.00000000E+00  0.00000000E+00  0.00000000E+00
  0.00000000E+00  0.00000000E+00  0.00000000E+00
  0.00000000E+00  0.00000000E+00  0.00000000E+00
  0.00000000E+00  0.00000000E+00  0.00000000E+00
  0.00000000E+00  0.00000000E+00  0.00000000E+00
  0.00000000E+00  0.00000000E+00  0.00000000E+00
  0.00000000E+00  0.00000000E+00  0.00000000E+00
  0.00000000E+00  0.00000000E+00  0.00000000E+00
  0.00000000E+00  0.00000000E+00  0.00000000E+00
  0.00000000E+00  0.00000000E+00  0.00000000E+00
  0.00000000E+00  0.00000000E+00  0.00000000E+00
  0.00000000E+00  0.00000000E+00  0.00000000E+00
  0.00000000E+00  0.00000000E+00  0.00000000E+00
  0.00000000E+00  0.00000000E+00  0.00000000E+00
  0.00000000E+00  0.00000000E+00  0.00000000E+00
  0.00000000E+00  0.00000000E+00  0.00000000E+00
  0.00000000E+00  0.00000000E+00  0.00000000E+00
  0.00000000E+00  0.00000000E+00  0.00000000E+00
  0.00000000E+00  0.00000000E+00  0.00000000E+00
  0.00000000E+00  0.00000000E+00  0.00000000E+00
  0.00000000E+00  0.00000000E+00  0.00000000E+00
  0.00000000E+00  0.00000000E+00  0.00000000E+00
