Au Pd                                   
   1.00000000000000     
    11.0025815152626798    0.0000000000000000    0.0000000000000000
     5.5012907576313399    9.5285150994265617    0.0000000000000000
     0.0000000000000000    0.0000000000000000   24.4917850942952882
   Au   Pd
    24    24
Direct
  0.0838988348789600  0.0842856496754797  0.3977288905841935
  0.8335953891655496  0.8354237976781879  0.3939268627531101
  0.8314065662603718  0.5846390469003454  0.3940707835638370
  0.7499088233900464  0.2525131505488467  0.6006867412170619
  0.8313030387308825  0.3337381668546788  0.3971534970918653
  0.7490425737546291 -0.0005808720053006  0.6054202911241533
  0.4981641023431960  0.7486646560564909  0.6016430316644392
  0.4161796065472537  0.9163616350323658  0.4991710453606765
  0.4987621678760699  0.2497634780965443  0.6010246240207581
  0.5836512506727646  0.0848628521779380  0.3985234129114809
  0.6651841548963935  0.9180435466831317  0.5002332092374653
  0.1669150615099276  0.9155795937589049  0.5000752502145340
  0.3360180719670128  0.8311863793931098  0.3952912715022110
  0.2503798585380880  0.5010345639421284  0.6020007126914713
  0.2481089742442010  0.2470940138966052  0.6015443941787695
  0.1683824827507473  0.4151178655786404  0.4994342873717377
  0.7491227757173888  0.7471851948117196  0.6051210801942940
  0.0027120940980797  0.0008260544139162  0.6068458780587999
  0.0015290683717027  0.7486712997661717  0.6052825999901753
  0.9165100441953781  0.9179409589992351  0.5009955825161887
  0.9149220874160117  0.4156616413200564  0.4981720561239599
  0.0852089445190511  0.5850335853049554  0.3955152896747756
  0.9163273928197884  0.6667222641307369  0.4997985473685140
  0.3345715247450512  0.3339777998115224  0.3987186939466252
  0.2491537221454742 -0.0001677030897955  0.5965871840685795
  0.9149033509247991  0.1679081130559606  0.5001710034581340
  0.7510800056461986  0.4985203164279827  0.5956353982689747
  0.6655976511335538  0.6657176012605888  0.5004687860232734
  0.0842660916971092  0.3333057546386637  0.4007409270012548
  0.6657081472860260  0.4161386982171565  0.4996144617378951
 -0.0004447072561460  0.2500120859869393  0.5955484458321180
  0.6648145009965657  0.1690417181507879  0.5016571804028638
  0.8330135444069394  0.0847452300663716  0.4047732686093917
  0.5003279422915891  0.5005901183325198  0.5949356965057494
  0.4190428718727869  0.6627157910691801  0.4993683510975974
  0.5831482129248378  0.5841640286944073  0.4036508652773372
 -0.0010610572861570  0.4986853331357091  0.5968109575524453
  0.4174100573903134  0.4165707806342216  0.5005626752109701
  0.5835484432914886  0.3355006890297649  0.4054818432932950
  0.4988501299796801 -0.0011530670990350  0.5974186969166886
  0.4166281205535777  0.1678445558963524  0.4998935486438337
  0.0843951116559855  0.8339337304907103  0.4032215575447774
  0.3337868056191805  0.0840358921795475  0.4023394301284187
  0.1665009805109311  0.1665851482865841  0.4987349271448228
  0.1690242231242734  0.6646805851778113  0.5005084849658156
  0.3343780326227457  0.5841756542292736  0.4044178822215949
  0.5834495592345889  0.8329398028804733  0.4023128152652853
  0.2506733698251114  0.7497628195214134  0.5967675794677877
 
  0.00000000E+00  0.00000000E+00  0.00000000E+00
  0.00000000E+00  0.00000000E+00  0.00000000E+00
  0.00000000E+00  0.00000000E+00  0.00000000E+00
  0.00000000E+00  0.00000000E+00  0.00000000E+00
  0.00000000E+00  0.00000000E+00  0.00000000E+00
  0.00000000E+00  0.00000000E+00  0.00000000E+00
  0.00000000E+00  0.00000000E+00  0.00000000E+00
  0.00000000E+00  0.00000000E+00  0.00000000E+00
  0.00000000E+00  0.00000000E+00  0.00000000E+00
  0.00000000E+00  0.00000000E+00  0.00000000E+00
  0.00000000E+00  0.00000000E+00  0.00000000E+00
  0.00000000E+00  0.00000000E+00  0.00000000E+00
  0.00000000E+00  0.00000000E+00  0.00000000E+00
  0.00000000E+00  0.00000000E+00  0.00000000E+00
  0.00000000E+00  0.00000000E+00  0.00000000E+00
  0.00000000E+00  0.00000000E+00  0.00000000E+00
  0.00000000E+00  0.00000000E+00  0.00000000E+00
  0.00000000E+00  0.00000000E+00  0.00000000E+00
  0.00000000E+00  0.00000000E+00  0.00000000E+00
  0.00000000E+00  0.00000000E+00  0.00000000E+00
  0.00000000E+00  0.00000000E+00  0.00000000E+00
  0.00000000E+00  0.00000000E+00  0.00000000E+00
  0.00000000E+00  0.00000000E+00  0.00000000E+00
  0.00000000E+00  0.00000000E+00  0.00000000E+00
  0.00000000E+00  0.00000000E+00  0.00000000E+00
  0.00000000E+00  0.00000000E+00  0.00000000E+00
  0.00000000E+00  0.00000000E+00  0.00000000E+00
  0.00000000E+00  0.00000000E+00  0.00000000E+00
  0.00000000E+00  0.00000000E+00  0.00000000E+00
  0.00000000E+00  0.00000000E+00  0.00000000E+00
  0.00000000E+00  0.00000000E+00  0.00000000E+00
  0.00000000E+00  0.00000000E+00  0.00000000E+00
  0.00000000E+00  0.00000000E+00  0.00000000E+00
  0.00000000E+00  0.00000000E+00  0.00000000E+00
  0.00000000E+00  0.00000000E+00  0.00000000E+00
  0.00000000E+00  0.00000000E+00  0.00000000E+00
  0.00000000E+00  0.00000000E+00  0.00000000E+00
  0.00000000E+00  0.00000000E+00  0.00000000E+00
  0.00000000E+00  0.00000000E+00  0.00000000E+00
  0.00000000E+00  0.00000000E+00  0.00000000E+00
  0.00000000E+00  0.00000000E+00  0.00000000E+00
  0.00000000E+00  0.00000000E+00  0.00000000E+00
  0.00000000E+00  0.00000000E+00  0.00000000E+00
  0.00000000E+00  0.00000000E+00  0.00000000E+00
  0.00000000E+00  0.00000000E+00  0.00000000E+00
  0.00000000E+00  0.00000000E+00  0.00000000E+00
  0.00000000E+00  0.00000000E+00  0.00000000E+00
  0.00000000E+00  0.00000000E+00  0.00000000E+00
