Pt Sn 
 1.0000000000000000
    14.4493430618976220    0.0000000000000000    0.0000000000000000
     0.0000000000000000   11.0115518475193870    0.0000000000000000
     0.0000000000000000    0.0000000000000000   26.2567490797998921
 Pt  Sn 
  32  32
Selective dynamics
Cartesian
  0.0000000000000000  0.0000000000000000 10.0000000000000000   F   F   F
  3.6123357654744024  2.7528879618798463 16.2567490797998921   T   T   T
  3.6123357654744024  0.0000000000000000 16.2567490797998921   T   T   T
 14.4493430618976202  5.5057759237596935 14.1711660531999275   T   T   T
 14.4493430618976202  2.7528879618798463 14.1711660531999275   T   T   T
  7.2246715309488092  2.7528879618798463 14.1711660531999275   T   T   T
  7.2246715309488092  0.0000000000000000 14.1711660531999275   T   T   T
  0.0000000000000004  8.2586638856395389 10.0000000000000000   F   F   F
  3.6123357654744050  2.7528879618798463 12.0855830265999629   T   T   T
  3.6123357654744046  0.0000000000000000 12.0855830265999629   T   T   T
 10.8370072964232129  5.5057759237596935 16.2567490797998921   T   T   T
 10.8370072964232129  8.2586638856395389 16.2567490797998921   T   T   T
  0.0000000000000004  2.7528879618798463 10.0000000000000000   F   F   F
  0.0000000000000000  5.5057759237596935 10.0000000000000000   F   F   F
  3.6123357654744046  5.5057759237596935 12.0855830265999629   T   T   T
 10.8370072964232165  8.2586638856395389 12.0855830265999629   T   T   T
 14.4493430618976202  8.2586638856395389 14.1711660531999275   T   T   T
 10.8370072964232165  2.7528879618798463 12.0855830265999629   T   T   T
  3.6123357654744024  8.2586638856395389 16.2567490797998921   T   T   T
 14.4493430618976202  0.0000000000000000 14.1711660531999275   T   T   T
  3.6123357654744050  8.2586638856395389 12.0855830265999629   T   T   T
  7.2246715309488092  5.5057759237596935 14.1711660531999275   T   T   T
  7.2246715309488110  8.2586638856395389 10.0000000000000000   F   F   F
  7.2246715309488110  5.5057759237596935 10.0000000000000000   F   F   F
  7.2246715309488092  8.2586638856395389 14.1711660531999275   T   T   T
  3.6123357654744024  5.5057759237596935 16.2567490797998921   T   T   T
  7.2246715309488110  0.0000000000000000 10.0000000000000000   F   F   F
  7.2246715309488110  2.7528879618798463 10.0000000000000000   F   F   F
 10.8370072964232129  2.7528879618798463 16.2567490797998921   T   T   T
 10.8370072964232129  0.0000000000000000 16.2567490797998921   T   T   T
 10.8370072964232165  0.0000000000000000 12.0855830265999629   T   T   T
 10.8370072964232165  5.5057759237596935 12.0855830265999629   T   T   T
  6.0205572009001891  9.6351078665794638 12.0855830265999629   T   T   T
  4.8164500955230247  1.3764439809399227 14.1711660531999275   T   T   T
  2.4082214354257800  4.1293319428197695 10.0000000000000000   F   F   F
  1.2041143300486190  1.3764439809399227 16.2567490797998921   T   T   T
  8.4287858609974293  1.3764439809399227 12.0855830265999629   T   T   T
  2.4082214354257818  9.6351078665794638 14.1711660531999275   T   T   T
 12.0411216264718384  1.3764439809399227 10.0000000000000000   F   F   F
  6.0205572009001855  9.6351078665794638 16.2567490797998921   T   T   T
  4.8164500955230247  6.8822199046996158 14.1711660531999275   T   T   T
  2.4082214354257800  9.6351078665794638 10.0000000000000000   F   F   F
  9.6328929663745910  9.6351078665794638 10.0000000000000000   F   F   F
 13.2452287318490001  4.1293319428197695 12.0855830265999629   T   T   T
  6.0205572009001855  4.1293319428197695 16.2567490797998921   T   T   T
  1.2041143300486190  6.8822199046996158 12.0855830265999629   T   T   T
  1.2041143300486190  1.3764439809399227 12.0855830265999629   T   T   T
 13.2452287318489965  4.1293319428197695 16.2567490797998921   T   T   T
  4.8164500955230265  1.3764439809399227 10.0000000000000000   F   F   F
  6.0205572009001891  4.1293319428197695 12.0855830265999629   T   T   T
  9.6328929663745928  4.1293319428197695 14.1711660531999275   T   T   T
  1.2041143300486190  6.8822199046996158 16.2567490797998921   T   T   T
 13.2452287318489965  9.6351078665794638 16.2567490797998921   T   T   T
 12.0411216264718348  1.3764439809399227 14.1711660531999275   T   T   T
  9.6328929663745928  9.6351078665794638 14.1711660531999275   T   T   T
  8.4287858609974293  6.8822199046996158 12.0855830265999629   T   T   T
 12.0411216264718384  6.8822199046996158 10.0000000000000000   F   F   F
 13.2452287318490001  9.6351078665794638 12.0855830265999629   T   T   T
 12.0411216264718348  6.8822199046996158 14.1711660531999275   T   T   T
  9.6328929663745910  4.1293319428197695 10.0000000000000000   F   F   F
  8.4287858609974293  1.3764439809399227 16.2567490797998921   T   T   T
  4.8164500955230265  6.8822199046996158 10.0000000000000000   F   F   F
  2.4082214354257818  4.1293319428197695 14.1711660531999275   T   T   T
  8.4287858609974293  6.8822199046996158 16.2567490797998921   T   T   T
