Au Pd                                   
   1.00000000000000     
    11.0025815152626798    0.0000000000000000    0.0000000000000000
     5.5012907576313399    9.5285150994265617    0.0000000000000000
     0.0000000000000000    0.0000000000000000   24.4917850942952882
   Au   Pd
    24    24
Direct
  0.0840685849910355  0.0828755203981839  0.3963622627136498
  0.8342755820880093  0.8332408055292300  0.3982519621602574
  0.7492465075992244  0.4995417296364534  0.6023397678366139
  0.8330456714241401  0.5837939448433384  0.3951436870314896
  0.7501676406834263  0.0025040160283829  0.5996612565222161
  0.8326574222708664  0.0847803472548591  0.3962704006186276
  0.4997442795244501  0.4993299533821031  0.6039644579652470
  0.4162316588523078  0.6682850142440927  0.4995074370965093
  0.5840985219245817  0.5809395511101567  0.3982372522551692
  0.4166483459672304  0.4170220660384209  0.4999654586475979
  0.4984132590538730  0.0010699935437712  0.6019896406061979
  0.4181671914873906  0.1654922856826407  0.4996056089025951
  0.5807297349405870  0.0848379484374156  0.3977056088555207
  0.3335851470188201  0.8334399547861130  0.3973800274678004
  0.2491608212938590  0.4982122317953380  0.6023059110486024
  0.7493907269553844  0.7492076562511591  0.6016172817759501
  0.9172527395736638  0.6675313786334032  0.4997301107965877
  0.9153909702113663  0.1654686214187732  0.5000170323589412
  0.0000819434516778  0.2495329558906577  0.6070829696375915
  0.2498642035465292 -0.0023720865864827  0.6020743530777011
  0.1676211511385940  0.1655584474686220  0.4998354813002637
  0.0862068033156468  0.3344174970129321  0.3947163932577747
  0.9152760730244709  0.4176769709109789  0.4997273303590649
  0.0020001597114005  0.7504670776478197  0.6029513675493878
  0.4991861025689381  0.7493450990326209  0.5967912358476739
  0.6684074251078885  0.1646929113272947  0.4990292410131165
  0.6660963967668284  0.4170238616563250  0.5008792929765432
  0.4175513172037996  0.9159868293030519  0.5004826317769432
  0.7497941728526395  0.2493823718117066  0.5966344298717071
  0.6661409763923500  0.6679717845754122  0.4996961398274737
  0.0003418494284074  0.0002055231462056  0.5968301614484839
  0.8338689271623575  0.3331401798891351  0.4024874730446266
  0.5826077502924444  0.8338891301101128  0.4044786764671775
  0.1666822565762574  0.4177434243140354  0.4993388506847787
  0.3330066090440769  0.3355687966581428  0.4020934101268510
  0.0004011982600180  0.4986472293713097  0.5974972278798676
  0.4997402617844209  0.2500180120470426  0.5972391530322357
  0.0846143717777125  0.8316147313985898  0.4045087383343132
  0.5826455764770279  0.3344953621303372  0.4036158302769489
  0.9172771271797487  0.9163096342945410  0.4999378265437923
  0.3340955980650083  0.0834374188728338  0.4020771156262368
  0.6667217342231361  0.9161734831641016  0.5000461603307556
  0.1667589145552283  0.9155605387485822  0.4995530180800788
  0.1649956157869034  0.6683512999494888  0.5009644975737124
  0.3316373959528086  0.5821049249085541  0.4027832927146954
  0.2489491983863786  0.2507658055517574  0.5971484284259559
  0.0851364562283430  0.5841561237818130  0.4029701653644041
  0.2500176278787434  0.7505616425986424  0.5964739428902712
 
  0.00000000E+00  0.00000000E+00  0.00000000E+00
  0.00000000E+00  0.00000000E+00  0.00000000E+00
  0.00000000E+00  0.00000000E+00  0.00000000E+00
  0.00000000E+00  0.00000000E+00  0.00000000E+00
  0.00000000E+00  0.00000000E+00  0.00000000E+00
  0.00000000E+00  0.00000000E+00  0.00000000E+00
  0.00000000E+00  0.00000000E+00  0.00000000E+00
  0.00000000E+00  0.00000000E+00  0.00000000E+00
  0.00000000E+00  0.00000000E+00  0.00000000E+00
  0.00000000E+00  0.00000000E+00  0.00000000E+00
  0.00000000E+00  0.00000000E+00  0.00000000E+00
  0.00000000E+00  0.00000000E+00  0.00000000E+00
  0.00000000E+00  0.00000000E+00  0.00000000E+00
  0.00000000E+00  0.00000000E+00  0.00000000E+00
  0.00000000E+00  0.00000000E+00  0.00000000E+00
  0.00000000E+00  0.00000000E+00  0.00000000E+00
  0.00000000E+00  0.00000000E+00  0.00000000E+00
  0.00000000E+00  0.00000000E+00  0.00000000E+00
  0.00000000E+00  0.00000000E+00  0.00000000E+00
  0.00000000E+00  0.00000000E+00  0.00000000E+00
  0.00000000E+00  0.00000000E+00  0.00000000E+00
  0.00000000E+00  0.00000000E+00  0.00000000E+00
  0.00000000E+00  0.00000000E+00  0.00000000E+00
  0.00000000E+00  0.00000000E+00  0.00000000E+00
  0.00000000E+00  0.00000000E+00  0.00000000E+00
  0.00000000E+00  0.00000000E+00  0.00000000E+00
  0.00000000E+00  0.00000000E+00  0.00000000E+00
  0.00000000E+00  0.00000000E+00  0.00000000E+00
  0.00000000E+00  0.00000000E+00  0.00000000E+00
  0.00000000E+00  0.00000000E+00  0.00000000E+00
  0.00000000E+00  0.00000000E+00  0.00000000E+00
  0.00000000E+00  0.00000000E+00  0.00000000E+00
  0.00000000E+00  0.00000000E+00  0.00000000E+00
  0.00000000E+00  0.00000000E+00  0.00000000E+00
  0.00000000E+00  0.00000000E+00  0.00000000E+00
  0.00000000E+00  0.00000000E+00  0.00000000E+00
  0.00000000E+00  0.00000000E+00  0.00000000E+00
  0.00000000E+00  0.00000000E+00  0.00000000E+00
  0.00000000E+00  0.00000000E+00  0.00000000E+00
  0.00000000E+00  0.00000000E+00  0.00000000E+00
  0.00000000E+00  0.00000000E+00  0.00000000E+00
  0.00000000E+00  0.00000000E+00  0.00000000E+00
  0.00000000E+00  0.00000000E+00  0.00000000E+00
  0.00000000E+00  0.00000000E+00  0.00000000E+00
  0.00000000E+00  0.00000000E+00  0.00000000E+00
  0.00000000E+00  0.00000000E+00  0.00000000E+00
  0.00000000E+00  0.00000000E+00  0.00000000E+00
  0.00000000E+00  0.00000000E+00  0.00000000E+00
