Au Pd                                   
   1.00000000000000     
    11.0025815152626798    0.0000000000000000    0.0000000000000000
     5.5012907576313399    9.5285150994265617    0.0000000000000000
     0.0000000000000000    0.0000000000000000   24.4917850942952882
   Au   Pd
    24    24
Direct
  0.7528315607491168  0.7475344746812874  0.6029753886267278
  0.5838540777992508  0.8348977391145839  0.3935938821531236
  0.5006851364785007 -0.0017295945338742  0.6058389117734120
  0.4152034075827434  0.9183902836391659  0.5009323577269426
  0.4979280794826974  0.7466275641583523  0.6091322056653753
  0.6666144458875590  0.9189399448482330  0.4993001184397970
  0.8320750526999416  0.0875827373197601  0.3968427717918906
  0.2467758757642798  0.5019715544005606  0.5997100317298379
  0.3377793183687802  0.5820732018341104  0.3979555924962674
  0.2471277416121692  0.2499941819621197  0.6024141316798802
  0.5018998215935335  0.2484873694814200  0.6015498248141234
  0.2464068409689883 -0.0039516944427460  0.6060352027575547
  0.1659671564044621  0.1671412150449056  0.4999429762852212
  0.4160569038044883  0.6657227239719791  0.5005507621061512
  0.0850348918369794  0.5842912387921199  0.3976139594149503
  0.9181080092247395  0.9168492007605282  0.4976447979601237
  0.0854043796945958  0.8362921260697249  0.3956911498021284
  0.8328317175706852  0.5851717366194654  0.3943628500275924
  0.6678619857465428  0.6657915459106573  0.5003501522762435
  0.7483226306140014  0.4965728658776099  0.6056934495900880
  0.3353193937587288  0.0850912163508284  0.3965633897227330
 -0.0034532020019552  0.2468428200930936  0.6045382650016022
  0.9168992027301280  0.4165512517528924  0.4996992883869891
  0.0844937464511755  0.3336103400776321  0.3954811176640837
  0.4989510055786260  0.4981448001755581  0.5971892305389096
  0.8326970475797815  0.8363192675686647  0.4003867826140057
  0.7491256691674849  0.2472874025872704  0.5962663255550298
  0.7512447243491908 -0.0015549927699422  0.5960187581644187
  0.8322226478885144  0.3356206259950664  0.4036945913051391
  0.6651938977657588  0.1707022602173378  0.4999676226389463
  0.6675389179504260  0.4150860707018588  0.5013918353897364
  0.0840835432984439  0.0850240214005200  0.4029478233326169
  0.4168576937683161  0.4160837815249772  0.5009141204506304
  0.5853125432817152  0.3345456767476404  0.4047692570773620
  0.4165564470625707  0.1689474388313809  0.5016765118583209
  0.5835741806096583  0.0865690801077091  0.4037138024425342
  0.1655803624029797  0.9170503237739639  0.4995926391322790
  0.3346221615120520  0.8349827748231717  0.4029269400103699
  0.1677078608361279  0.6648154529217443  0.4980965161161394
  0.1677455304500833  0.4177931022798688  0.4997269010681054
  0.3376228803968350  0.3326722786134613  0.4054047880851731
 -0.0007873946017815  0.7489708152836121  0.5935489036835769
 -0.0019053461614209  0.4991703765575505  0.5957840315570042
  0.9182102124888629  0.6656119916478382  0.4978028952598874
 -0.0024150707861100 -0.0034815202993344  0.5949605292017838
  0.9149404069669645  0.1673708492358556  0.4993962394073348
  0.5851670411214166  0.5829729026540551  0.4035939574811822
  0.2481248622513719  0.7485491756357611  0.5958164197366747
 
  0.00000000E+00  0.00000000E+00  0.00000000E+00
  0.00000000E+00  0.00000000E+00  0.00000000E+00
  0.00000000E+00  0.00000000E+00  0.00000000E+00
  0.00000000E+00  0.00000000E+00  0.00000000E+00
  0.00000000E+00  0.00000000E+00  0.00000000E+00
  0.00000000E+00  0.00000000E+00  0.00000000E+00
  0.00000000E+00  0.00000000E+00  0.00000000E+00
  0.00000000E+00  0.00000000E+00  0.00000000E+00
  0.00000000E+00  0.00000000E+00  0.00000000E+00
  0.00000000E+00  0.00000000E+00  0.00000000E+00
  0.00000000E+00  0.00000000E+00  0.00000000E+00
  0.00000000E+00  0.00000000E+00  0.00000000E+00
  0.00000000E+00  0.00000000E+00  0.00000000E+00
  0.00000000E+00  0.00000000E+00  0.00000000E+00
  0.00000000E+00  0.00000000E+00  0.00000000E+00
  0.00000000E+00  0.00000000E+00  0.00000000E+00
  0.00000000E+00  0.00000000E+00  0.00000000E+00
  0.00000000E+00  0.00000000E+00  0.00000000E+00
  0.00000000E+00  0.00000000E+00  0.00000000E+00
  0.00000000E+00  0.00000000E+00  0.00000000E+00
  0.00000000E+00  0.00000000E+00  0.00000000E+00
  0.00000000E+00  0.00000000E+00  0.00000000E+00
  0.00000000E+00  0.00000000E+00  0.00000000E+00
  0.00000000E+00  0.00000000E+00  0.00000000E+00
  0.00000000E+00  0.00000000E+00  0.00000000E+00
  0.00000000E+00  0.00000000E+00  0.00000000E+00
  0.00000000E+00  0.00000000E+00  0.00000000E+00
  0.00000000E+00  0.00000000E+00  0.00000000E+00
  0.00000000E+00  0.00000000E+00  0.00000000E+00
  0.00000000E+00  0.00000000E+00  0.00000000E+00
  0.00000000E+00  0.00000000E+00  0.00000000E+00
  0.00000000E+00  0.00000000E+00  0.00000000E+00
  0.00000000E+00  0.00000000E+00  0.00000000E+00
  0.00000000E+00  0.00000000E+00  0.00000000E+00
  0.00000000E+00  0.00000000E+00  0.00000000E+00
  0.00000000E+00  0.00000000E+00  0.00000000E+00
  0.00000000E+00  0.00000000E+00  0.00000000E+00
  0.00000000E+00  0.00000000E+00  0.00000000E+00
  0.00000000E+00  0.00000000E+00  0.00000000E+00
  0.00000000E+00  0.00000000E+00  0.00000000E+00
  0.00000000E+00  0.00000000E+00  0.00000000E+00
  0.00000000E+00  0.00000000E+00  0.00000000E+00
  0.00000000E+00  0.00000000E+00  0.00000000E+00
  0.00000000E+00  0.00000000E+00  0.00000000E+00
  0.00000000E+00  0.00000000E+00  0.00000000E+00
  0.00000000E+00  0.00000000E+00  0.00000000E+00
  0.00000000E+00  0.00000000E+00  0.00000000E+00
  0.00000000E+00  0.00000000E+00  0.00000000E+00
