Au Pd                                   
   1.00000000000000     
    11.0025815152626798    0.0000000000000000    0.0000000000000000
     5.5012907576313399    9.5285150994265617    0.0000000000000000
     0.0000000000000000    0.0000000000000000   24.4917850942952882
   Au   Pd
    24    24
Direct
  0.7534948637774878  0.7481880594062617  0.6049275883867093
  0.5840399050747993  0.8313965122365239  0.3950656421986058
  0.5849118341472577  0.3348667247383510  0.3982166740569764
  0.4994638958331540 -0.0007151464471860  0.6093194234616641
  0.4139631301594268  0.1690582000347967  0.5003795282842004
  0.5842910904453928  0.0829325367038196  0.3912133195768753
  0.6658844363989388  0.9167744009735244  0.5004791734472035
  0.4130573290696543  0.9176088017803236  0.5003956292996022
  0.3334667493928276  0.8325053552554855  0.3967229319860877
  0.2483605405976577  0.5032192556626951  0.6029769760423956
  0.1681906532742963  0.6648922642083606  0.5002427144301503
  0.4981598293166392  0.7480767382248947  0.6043281843910618
  0.2466044765217404  0.2502912393008530  0.6030984713843509
  0.5004886364762069  0.2510115611325663  0.6042019299065214
  0.3323150679446802  0.3351430575705525  0.3985345171353630
  0.9184053595364795  0.9152303146448236  0.4991308091495699
  0.0838346945388791  0.8333983973327103  0.3952174916842279
  0.7522545080425176  0.2501718279213844  0.6047720589371087
  0.6659086797893935  0.6653653352001233  0.5008170302403794
  0.9177801610656718  0.4171575760552905  0.5000332568081166
  0.0827349478386325  0.3324422427494123  0.3984292678769085
  0.8353839932147811  0.8305797632265022  0.3941503826249819
  0.9183232650739561  0.1668144149741718  0.5000169077903682
  0.6654261976604734  0.1687576171281857  0.5000304428460949
  0.7510707921460545 -0.0001272846808636  0.5979432056633162
  0.8345782287797304  0.0839560989530184  0.4012299827366044
  0.8334170261141146  0.3330480197488843  0.4026391914468659
  0.6641953309850770  0.4175215524907793  0.5004041394277928
  0.8337988313747063  0.5818891936147126  0.4025417942167103
  0.7511599782021934  0.4989807307806691  0.5978767459622794
  0.5009863998488644  0.4998198991409816  0.5958473593299976
  0.0831346430985735  0.0832499384489839  0.4028453049588319
  0.5839052430938652  0.5825641460114321  0.4039605859811786
  0.4164054729071385  0.4181602749904771  0.4999308041154607
  0.1683802394189824  0.9157679718373793  0.4988023625970642
  0.3341939932196152  0.5832680025807104  0.4035656907955519
  0.1666934943109760  0.4170800578516433  0.5008450847901493
  0.2475685213965103  0.0000702711203822  0.5966594704136322
  0.1660704288021185  0.1676174858935833  0.5003647817340132
  0.3328439046270174  0.0830440062249335  0.4026481704822447
 -0.0007628940276252  0.7516556938537863  0.5970066732806351
 -0.0007398312002298  0.4999056099766295  0.5968640625413641
  0.9156367965347080  0.6673097367113162  0.5000502043595022
  0.0832748615055368  0.5828588236031704  0.4038770015149811
  0.0000394108879085  0.2498342195471519  0.5977434659405837
  0.0018764600397913 -0.0012138767129557  0.5969545694652333
  0.4167441143130140  0.6666351826527744  0.5004694835897989
  0.2487843084304141  0.7519371953459929  0.5962295127106854
 
  0.00000000E+00  0.00000000E+00  0.00000000E+00
  0.00000000E+00  0.00000000E+00  0.00000000E+00
  0.00000000E+00  0.00000000E+00  0.00000000E+00
  0.00000000E+00  0.00000000E+00  0.00000000E+00
  0.00000000E+00  0.00000000E+00  0.00000000E+00
  0.00000000E+00  0.00000000E+00  0.00000000E+00
  0.00000000E+00  0.00000000E+00  0.00000000E+00
  0.00000000E+00  0.00000000E+00  0.00000000E+00
  0.00000000E+00  0.00000000E+00  0.00000000E+00
  0.00000000E+00  0.00000000E+00  0.00000000E+00
  0.00000000E+00  0.00000000E+00  0.00000000E+00
  0.00000000E+00  0.00000000E+00  0.00000000E+00
  0.00000000E+00  0.00000000E+00  0.00000000E+00
  0.00000000E+00  0.00000000E+00  0.00000000E+00
  0.00000000E+00  0.00000000E+00  0.00000000E+00
  0.00000000E+00  0.00000000E+00  0.00000000E+00
  0.00000000E+00  0.00000000E+00  0.00000000E+00
  0.00000000E+00  0.00000000E+00  0.00000000E+00
  0.00000000E+00  0.00000000E+00  0.00000000E+00
  0.00000000E+00  0.00000000E+00  0.00000000E+00
  0.00000000E+00  0.00000000E+00  0.00000000E+00
  0.00000000E+00  0.00000000E+00  0.00000000E+00
  0.00000000E+00  0.00000000E+00  0.00000000E+00
  0.00000000E+00  0.00000000E+00  0.00000000E+00
  0.00000000E+00  0.00000000E+00  0.00000000E+00
  0.00000000E+00  0.00000000E+00  0.00000000E+00
  0.00000000E+00  0.00000000E+00  0.00000000E+00
  0.00000000E+00  0.00000000E+00  0.00000000E+00
  0.00000000E+00  0.00000000E+00  0.00000000E+00
  0.00000000E+00  0.00000000E+00  0.00000000E+00
  0.00000000E+00  0.00000000E+00  0.00000000E+00
  0.00000000E+00  0.00000000E+00  0.00000000E+00
  0.00000000E+00  0.00000000E+00  0.00000000E+00
  0.00000000E+00  0.00000000E+00  0.00000000E+00
  0.00000000E+00  0.00000000E+00  0.00000000E+00
  0.00000000E+00  0.00000000E+00  0.00000000E+00
  0.00000000E+00  0.00000000E+00  0.00000000E+00
  0.00000000E+00  0.00000000E+00  0.00000000E+00
  0.00000000E+00  0.00000000E+00  0.00000000E+00
  0.00000000E+00  0.00000000E+00  0.00000000E+00
  0.00000000E+00  0.00000000E+00  0.00000000E+00
  0.00000000E+00  0.00000000E+00  0.00000000E+00
  0.00000000E+00  0.00000000E+00  0.00000000E+00
  0.00000000E+00  0.00000000E+00  0.00000000E+00
  0.00000000E+00  0.00000000E+00  0.00000000E+00
  0.00000000E+00  0.00000000E+00  0.00000000E+00
  0.00000000E+00  0.00000000E+00  0.00000000E+00
  0.00000000E+00  0.00000000E+00  0.00000000E+00
