Au  O Pd                                
   1.00000000000000     
    11.0025815152626798    0.0000000000000000    0.0000000000000000
     5.5012907576313399    9.5285150994265617    0.0000000000000000
     0.0000000000000000    0.0000000000000000   26.1917850942952910
   Au   O    Pd
    24     8    24
Selective dynamics
Direct
  0.0833333333333357  0.0833333333333357  0.3817991009012260   F   F   F
  0.0833333333333357  0.8333333333333357  0.3817991009012260   F   F   F
  0.9191394080037499  0.1654608428189722  0.4718314194272946   T   T   T
  0.7401640658715136  0.5123977590030814  0.5655376093793868   T   T   T
  0.7402299246432461  0.2557424724454417  0.5646267206677166   T   T   T
  0.0833333333333357  0.3333333333333357  0.3817991009012260   F   F   F
  0.6647371900312125  0.4178145737143590  0.4743452018644372   T   T   T
  0.9980725093303088  0.2475387208276975  0.5617381560065112   T   T   T
  0.6666167477230224  0.1594346804071011  0.4743839326488428   T   T   T
  0.5127220801884713  0.7506431184801826  0.6171524265974837   T   T   T
  0.4279180825622108  0.9076503512097570  0.5145761857450293   T   T   T
  0.3333333333333357  0.8333333333333357  0.3817991009012260   F   F   F
  0.5833333333333357  0.8333333333333357  0.3817991009012260   F   F   F
  0.9789931457625498  0.7700828588433595  0.5593229656435773   T   T   T
  0.5833333333333357  0.5833333333333357  0.3817991009012260   F   F   F
  0.3333333333333357  0.0833333333333357  0.3817991009012260   F   F   F
  0.5833333333333357  0.3333333333333357  0.3817991009012260   F   F   F
  0.5101420441178598  0.9801127876601051  0.6334475624904590   T   T   T
  0.3333333333333357  0.3333333333333357  0.3817991009012260   F   F   F
  0.4198870259064191  0.1542053888014558  0.4778171598956168   T   T   T
  0.2611036382963638  0.2418379820590039  0.5678748972382278   T   T   T
  0.2502821330560960  0.7449842364513418  0.5681189580633473   T   T   T
  0.3333333333333357  0.5833333333333357  0.3817991009012260   F   F   F
  0.1757408837096659  0.9130045189401720  0.4790777086529604   T   T   T
  0.3049069646880573  0.1052908388360918  0.6367908077482046   T   T   T
  0.0800099339764477  0.5889414901291762  0.6087310096891757   T   T   T
  0.0460525888378549  0.3562388486519195  0.6136491527641261   T   T   T
  0.7188145560846754  0.8478736424766415  0.6319902840400340   T   T   T
  0.3015494845651837  0.8254410631092746  0.6357353098186821   T   T   T
  0.5754061347898862  0.5384178608809546  0.6200229660260007   T   T   T
  0.5784251896844413  0.1371756265552019  0.6333742624009407   T   T   T
  0.8655335464467414  0.1006472517861600  0.6203472136188835   T   T   T
  0.4198233720221241  0.6672026748556107  0.4769993881256942   T   T   T
  0.5077048743559033  0.2367047229467645  0.5677736066326807   T   T   T
  0.2222099458207315  0.0082123940604130  0.5983977346818947   T   T   T
  0.1742308702319559  0.1584315377316510  0.4758861475628369   T   T   T
  0.9154154544199276  0.9151647541420481  0.4727200505132790   T   T   T
  0.1653883596110306  0.4132048514287194  0.4749201729944103   T   T   T
  0.5833333333333357  0.0833333333333357  0.3817991009012260   F   F   F
  0.7176786009639160  0.7704373780229515  0.5617183701900671   T   T   T
  0.1691851004261564  0.6634246083236032  0.4744196790658419   T   T   T
  0.4887362046895131  0.4929700064826115  0.5635038891507761   T   T   T
  0.2471520532551870  0.4969774787364983  0.5633725538528854   T   T   T
  0.9154977538491804  0.6666230360613781  0.4718596081382745   T   T   T
  0.8333333333333357  0.0833333333333357  0.3817991009012260   F   F   F
  0.0833333333333357  0.5833333333333357  0.3817991009012260   F   F   F
  0.7851132675732406  0.9813305993335423  0.6205163561612961   T   T   T
  0.8333333333333357  0.3333333333333357  0.3817991009012260   F   F   F
  0.9147053838340270  0.4218771255223017  0.4735589690620545   T   T   T
  0.8333333333333357  0.5833333333333357  0.3817991009012260   F   F   F
  0.6651769107592835  0.6710467527501590  0.4740862988700440   T   T   T
 -0.0010618411588291  0.0021180851284475  0.5620073212722120   T   T   T
  0.8333333333333357  0.8333333333333357  0.3817991009012260   F   F   F
  0.6671585077983676  0.9124531455308437  0.4716768894912468   T   T   T
  0.4138045952961846  0.4112858649718523  0.4791902055801536   T   T   T
  0.9807570733084300  0.5165574288046301  0.5649282734947619   T   T   T
 
  0.00000000E+00  0.00000000E+00  0.00000000E+00
  0.00000000E+00  0.00000000E+00  0.00000000E+00
  0.00000000E+00  0.00000000E+00  0.00000000E+00
  0.00000000E+00  0.00000000E+00  0.00000000E+00
  0.00000000E+00  0.00000000E+00  0.00000000E+00
  0.00000000E+00  0.00000000E+00  0.00000000E+00
  0.00000000E+00  0.00000000E+00  0.00000000E+00
  0.00000000E+00  0.00000000E+00  0.00000000E+00
  0.00000000E+00  0.00000000E+00  0.00000000E+00
  0.00000000E+00  0.00000000E+00  0.00000000E+00
  0.00000000E+00  0.00000000E+00  0.00000000E+00
  0.00000000E+00  0.00000000E+00  0.00000000E+00
  0.00000000E+00  0.00000000E+00  0.00000000E+00
  0.00000000E+00  0.00000000E+00  0.00000000E+00
  0.00000000E+00  0.00000000E+00  0.00000000E+00
  0.00000000E+00  0.00000000E+00  0.00000000E+00
  0.00000000E+00  0.00000000E+00  0.00000000E+00
  0.00000000E+00  0.00000000E+00  0.00000000E+00
  0.00000000E+00  0.00000000E+00  0.00000000E+00
  0.00000000E+00  0.00000000E+00  0.00000000E+00
  0.00000000E+00  0.00000000E+00  0.00000000E+00
  0.00000000E+00  0.00000000E+00  0.00000000E+00
  0.00000000E+00  0.00000000E+00  0.00000000E+00
  0.00000000E+00  0.00000000E+00  0.00000000E+00
  0.00000000E+00  0.00000000E+00  0.00000000E+00
  0.00000000E+00  0.00000000E+00  0.00000000E+00
  0.00000000E+00  0.00000000E+00  0.00000000E+00
  0.00000000E+00  0.00000000E+00  0.00000000E+00
  0.00000000E+00  0.00000000E+00  0.00000000E+00
  0.00000000E+00  0.00000000E+00  0.00000000E+00
  0.00000000E+00  0.00000000E+00  0.00000000E+00
  0.00000000E+00  0.00000000E+00  0.00000000E+00
  0.00000000E+00  0.00000000E+00  0.00000000E+00
  0.00000000E+00  0.00000000E+00  0.00000000E+00
  0.00000000E+00  0.00000000E+00  0.00000000E+00
  0.00000000E+00  0.00000000E+00  0.00000000E+00
  0.00000000E+00  0.00000000E+00  0.00000000E+00
  0.00000000E+00  0.00000000E+00  0.00000000E+00
  0.00000000E+00  0.00000000E+00  0.00000000E+00
  0.00000000E+00  0.00000000E+00  0.00000000E+00
  0.00000000E+00  0.00000000E+00  0.00000000E+00
  0.00000000E+00  0.00000000E+00  0.00000000E+00
  0.00000000E+00  0.00000000E+00  0.00000000E+00
  0.00000000E+00  0.00000000E+00  0.00000000E+00
  0.00000000E+00  0.00000000E+00  0.00000000E+00
  0.00000000E+00  0.00000000E+00  0.00000000E+00
  0.00000000E+00  0.00000000E+00  0.00000000E+00
  0.00000000E+00  0.00000000E+00  0.00000000E+00
  0.00000000E+00  0.00000000E+00  0.00000000E+00
  0.00000000E+00  0.00000000E+00  0.00000000E+00
  0.00000000E+00  0.00000000E+00  0.00000000E+00
  0.00000000E+00  0.00000000E+00  0.00000000E+00
  0.00000000E+00  0.00000000E+00  0.00000000E+00
  0.00000000E+00  0.00000000E+00  0.00000000E+00
  0.00000000E+00  0.00000000E+00  0.00000000E+00
  0.00000000E+00  0.00000000E+00  0.00000000E+00
