Au  O Pd                                
   1.00000000000000     
    11.0025815152626798    0.0000000000000000    0.0000000000000000
     5.5012907576313399    9.5285150994265617    0.0000000000000000
     0.0000000000000000    0.0000000000000000   26.1917850942952910
   Au   O    Pd
    24     8    24
Selective dynamics
Direct
  0.0833333333333357  0.0833333333333357  0.3817991009012260   F   F   F
  0.0833333333333357  0.8333333333333357  0.3817991009012260   F   F   F
  0.9193066255714604  0.1669602012393252  0.4719626780049240   T   T   T
  0.7441615465575463  0.5121020299097979  0.5645782895875794   T   T   T
  0.7430423352515912  0.2523839530093472  0.5651674145236468   T   T   T
  0.0833333333333357  0.3333333333333357  0.3817991009012260   F   F   F
  0.6653054015290130  0.4177674115069223  0.4748963085969110   T   T   T
  0.9977019235267719  0.2475623946219307  0.5623313457152609   T   T   T
  0.6657805139320373  0.1626381814579531  0.4735704083688329   T   T   T
  0.5131705215409756  0.7607641382988809  0.6116891525422972   T   T   T
  0.4258478369200301  0.9114476287541585  0.5157705533733495   T   T   T
  0.3333333333333357  0.8333333333333357  0.3817991009012260   F   F   F
  0.5833333333333357  0.8333333333333357  0.3817991009012260   F   F   F
  0.9796209555534257  0.7704186715910032  0.5606113211971927   T   T   T
  0.5833333333333357  0.5833333333333357  0.3817991009012260   F   F   F
  0.3333333333333357  0.0833333333333357  0.3817991009012260   F   F   F
  0.5833333333333357  0.3333333333333357  0.3817991009012260   F   F   F
  0.5147969708540084  0.9881755996344478  0.6269596269158141   T   T   T
  0.3333333333333357  0.3333333333333357  0.3817991009012260   F   F   F
  0.4195131531297767  0.1552181654105138  0.4756935928180825   T   T   T
  0.2630246899754722  0.2363679207761568  0.5639882695739807   T   T   T
  0.2515237236076976  0.7428063010933973  0.5685579368303603   T   T   T
  0.3333333333333357  0.5833333333333357  0.3817991009012260   F   F   F
  0.1755933243723713  0.9156074042688708  0.4783252776879702   T   T   T
  0.3039917205960144  0.0989737275786009  0.6395469672640873   T   T   T
  0.0774046467064626  0.5934822096329923  0.6078554582575729   T   T   T
  0.0597975343459385  0.3507484734948095  0.6140389833435507   T   T   T
  0.7412109089166925  0.8009528532965541  0.6347653764641100   T   T   T
  0.3063386034330360  0.8256462114477782  0.6338387563956959   T   T   T
  0.5754959189365297  0.5472094051304133  0.6188871086326121   T   T   T
  0.5787824186006556  0.1392984986021094  0.6294781239280237   T   T   T
  0.8602627527352258  0.0783081823303499  0.6176229893371087   T   T   T
  0.4193921446732948  0.6687260570801882  0.4778257591789017   T   T   T
  0.5049136731977291  0.2468772030771818  0.5650656428375865   T   T   T
  0.2134364403098833  0.0131346657202892  0.6011671097494820   T   T   T
  0.1737032846495267  0.1599337154401501  0.4744543051252715   T   T   T
  0.9118289966025033  0.9178395133428651  0.4723592114207703   T   T   T
  0.1640317490396528  0.4165081474452075  0.4734709985893478   T   T   T
  0.5833333333333357  0.0833333333333357  0.3817991009012260   F   F   F
  0.7243030924876609  0.7660450740446666  0.5618959334080447   T   T   T
  0.1666169720345193  0.6677527292967119  0.4748752533418040   T   T   T
  0.4922514236017540  0.4960769115486845  0.5635524493628300   T   T   T
  0.2477813390102473  0.4978096646879864  0.5631777150680161   T   T   T
  0.9146515964483045  0.6681387847023174  0.4722091499476660   T   T   T
  0.8333333333333357  0.0833333333333357  0.3817991009012260   F   F   F
  0.0833333333333357  0.5833333333333357  0.3817991009012260   F   F   F
  0.7754718945942213  0.9588605724639166  0.6220022000814146   T   T   T
  0.8333333333333357  0.3333333333333357  0.3817991009012260   F   F   F
  0.9164558994257316  0.4216713260791809  0.4730828433318591   T   T   T
  0.8333333333333357  0.5833333333333357  0.3817991009012260   F   F   F
  0.6620134423015082  0.6731866679792603  0.4735734466397589   T   T   T
 -0.0007129686323871  0.0015511042574924  0.5618079224292957   T   T   T
  0.8333333333333357  0.8333333333333357  0.3817991009012260   F   F   F
  0.6674043246101190  0.9129921298604485  0.4720210580961546   T   T   T
  0.4129302282599882  0.4157829121190570  0.4778233836072668   T   T   T
  0.9866062992714648  0.5123792010872487  0.5642221298639194   T   T   T
 
  0.00000000E+00  0.00000000E+00  0.00000000E+00
  0.00000000E+00  0.00000000E+00  0.00000000E+00
  0.00000000E+00  0.00000000E+00  0.00000000E+00
  0.00000000E+00  0.00000000E+00  0.00000000E+00
  0.00000000E+00  0.00000000E+00  0.00000000E+00
  0.00000000E+00  0.00000000E+00  0.00000000E+00
  0.00000000E+00  0.00000000E+00  0.00000000E+00
  0.00000000E+00  0.00000000E+00  0.00000000E+00
  0.00000000E+00  0.00000000E+00  0.00000000E+00
  0.00000000E+00  0.00000000E+00  0.00000000E+00
  0.00000000E+00  0.00000000E+00  0.00000000E+00
  0.00000000E+00  0.00000000E+00  0.00000000E+00
  0.00000000E+00  0.00000000E+00  0.00000000E+00
  0.00000000E+00  0.00000000E+00  0.00000000E+00
  0.00000000E+00  0.00000000E+00  0.00000000E+00
  0.00000000E+00  0.00000000E+00  0.00000000E+00
  0.00000000E+00  0.00000000E+00  0.00000000E+00
  0.00000000E+00  0.00000000E+00  0.00000000E+00
  0.00000000E+00  0.00000000E+00  0.00000000E+00
  0.00000000E+00  0.00000000E+00  0.00000000E+00
  0.00000000E+00  0.00000000E+00  0.00000000E+00
  0.00000000E+00  0.00000000E+00  0.00000000E+00
  0.00000000E+00  0.00000000E+00  0.00000000E+00
  0.00000000E+00  0.00000000E+00  0.00000000E+00
  0.00000000E+00  0.00000000E+00  0.00000000E+00
  0.00000000E+00  0.00000000E+00  0.00000000E+00
  0.00000000E+00  0.00000000E+00  0.00000000E+00
  0.00000000E+00  0.00000000E+00  0.00000000E+00
  0.00000000E+00  0.00000000E+00  0.00000000E+00
  0.00000000E+00  0.00000000E+00  0.00000000E+00
  0.00000000E+00  0.00000000E+00  0.00000000E+00
  0.00000000E+00  0.00000000E+00  0.00000000E+00
  0.00000000E+00  0.00000000E+00  0.00000000E+00
  0.00000000E+00  0.00000000E+00  0.00000000E+00
  0.00000000E+00  0.00000000E+00  0.00000000E+00
  0.00000000E+00  0.00000000E+00  0.00000000E+00
  0.00000000E+00  0.00000000E+00  0.00000000E+00
  0.00000000E+00  0.00000000E+00  0.00000000E+00
  0.00000000E+00  0.00000000E+00  0.00000000E+00
  0.00000000E+00  0.00000000E+00  0.00000000E+00
  0.00000000E+00  0.00000000E+00  0.00000000E+00
  0.00000000E+00  0.00000000E+00  0.00000000E+00
  0.00000000E+00  0.00000000E+00  0.00000000E+00
  0.00000000E+00  0.00000000E+00  0.00000000E+00
  0.00000000E+00  0.00000000E+00  0.00000000E+00
  0.00000000E+00  0.00000000E+00  0.00000000E+00
  0.00000000E+00  0.00000000E+00  0.00000000E+00
  0.00000000E+00  0.00000000E+00  0.00000000E+00
  0.00000000E+00  0.00000000E+00  0.00000000E+00
  0.00000000E+00  0.00000000E+00  0.00000000E+00
  0.00000000E+00  0.00000000E+00  0.00000000E+00
  0.00000000E+00  0.00000000E+00  0.00000000E+00
  0.00000000E+00  0.00000000E+00  0.00000000E+00
  0.00000000E+00  0.00000000E+00  0.00000000E+00
  0.00000000E+00  0.00000000E+00  0.00000000E+00
  0.00000000E+00  0.00000000E+00  0.00000000E+00
