Au  O Pd                                
   1.00000000000000     
    11.0025815152626798    0.0000000000000000    0.0000000000000000
     5.5012907576313399    9.5285150994265617    0.0000000000000000
     0.0000000000000000    0.0000000000000000   26.1917850942952910
   Au   O    Pd
    24     8    24
Selective dynamics
Direct
  0.8333333333333357  0.5833333333333357  0.3817991009012260   F   F   F
  0.6709569818102848  0.4162080911349330  0.4743483500122667   T   T   T
  0.0833333333333357  0.3333333333333357  0.3817991009012260   F   F   F
  0.0833333333333357  0.5833333333333357  0.3817991009012260   F   F   F
  0.9208922823845139  0.6623933226964319  0.4823128393899127   T   T   T
  0.9702330411309124  0.5099096680015934  0.6094072235349822   T   T   T
  0.7614101045780559  0.2665895623347845  0.6263833734869786   T   T   T
  0.9213188068552898  0.1664099778150337  0.4753352317115735   T   T   T
  0.9188591505848255  0.9184200406288429  0.4804631976327263   T   T   T
  0.4151969921033248  0.4148026577545796  0.4784688906170982   T   T   T
  0.2257283101765942  0.0146272221459854  0.5560054385818062   T   T   T
  0.5833333333333357  0.3333333333333357  0.3817991009012260   F   F   F
  0.6688707127461977  0.1640661823803704  0.4765753952450968   T   T   T
  0.4957362867991080  0.7428425981247315  0.5631194743278944   T   T   T
  0.8333333333333357  0.8333333333333357  0.3817991009012260   F   F   F
  0.3333333333333357  0.5833333333333357  0.3817991009012260   F   F   F
  0.5833333333333357  0.8333333333333357  0.3817991009012260   F   F   F
  0.2377981755054680  0.5134507441387244  0.5613800627730428   T   T   T
  0.7769910787519749  0.4605961370166804  0.5688745433933073   T   T   T
  0.5034915354457447  0.4981248527885208  0.5660128721747590   T   T   T
  0.7614234946695468  0.7411011238034435  0.5693288668101166   T   T   T
  0.4180314786081811  0.1611427906452578  0.4778973343408126   T   T   T
  0.4425759145368976  0.2802315922679627  0.6005315304379204   T   T   T
  0.3333333333333357  0.3333333333333357  0.3817991009012260   F   F   F
  0.0861542381050210  0.6057236383565481  0.6209576511485171   T   T   T
  0.8080080254886035  0.0552345274309431  0.6345649837606684   T   T   T
  0.5770009124472373  0.8247070061561639  0.6156362330620024   T   T   T
  0.1453454540878875  0.3176964811478125  0.6288138696752552   T   T   T
  0.1141319023558826  0.8168702072517625  0.6143964997114990   T   T   T
  0.1578647051541356  0.0454223472432416  0.6329916932930080   T   T   T
  0.5412191312932645  0.3805605139677040  0.6342360847813381   T   T   T
  0.5742422417648236  0.0726971328296640  0.6164334190929364   T   T   T
  0.2444860718599785  0.7615067812082909  0.5563621775057479   T   T   T
  0.1668446309112354  0.9164259885843137  0.4679360958898576   T   T   T
  0.6698004614021962  0.6644048671950195  0.4745154083551834   T   T   T
  0.1645153473328065  0.6711319649018431  0.4707761867114104   T   T   T
  0.2319866201226850  0.2603842603908675  0.5595220326938388   T   T   T
  0.1667247631619214  0.4152301194940843  0.4725167094219412   T   T   T
  0.6663077310681578  0.9156071635381117  0.4804158960686785   T   T   T
  0.1672273127573717  0.1667756690635477  0.4694692265931388   T   T   T
  0.3333333333333357  0.0833333333333357  0.3817991009012260   F   F   F
  0.9900188063042734  0.7691100483148655  0.5710722743114358   T   T   T
  0.0833333333333357  0.8333333333333357  0.3817991009012260   F   F   F
  0.0127515972351205  0.2471297739156918  0.6224059942195541   T   T   T
  0.9215024518060541  0.4141083293048756  0.4749560692996411   T   T   T
  0.9954355698026064  0.0207175446434179  0.6279706782369460   T   T   T
  0.5833333333333357  0.0833333333333357  0.3817991009012260   F   F   F
  0.0833333333333357  0.0833333333333357  0.3817991009012260   F   F   F
  0.8333333333333357  0.3333333333333357  0.3817991009012260   F   F   F
  0.7410486897188326  0.0091776198436524  0.5696924629886354   T   T   T
  0.8333333333333357  0.0833333333333357  0.3817991009012260   F   F   F
  0.4170114041372872  0.9144240506368427  0.4733779697212934   T   T   T
  0.5833333333333357  0.5833333333333357  0.3817991009012260   F   F   F
  0.4184091779142914  0.6652296562597453  0.4747530317644877   T   T   T
  0.4744139747423116  0.0054271692438106  0.5742524645429709   T   T   T
  0.3333333333333357  0.8333333333333357  0.3817991009012260   F   F   F
 
  0.00000000E+00  0.00000000E+00  0.00000000E+00
  0.00000000E+00  0.00000000E+00  0.00000000E+00
  0.00000000E+00  0.00000000E+00  0.00000000E+00
  0.00000000E+00  0.00000000E+00  0.00000000E+00
  0.00000000E+00  0.00000000E+00  0.00000000E+00
  0.00000000E+00  0.00000000E+00  0.00000000E+00
  0.00000000E+00  0.00000000E+00  0.00000000E+00
  0.00000000E+00  0.00000000E+00  0.00000000E+00
  0.00000000E+00  0.00000000E+00  0.00000000E+00
  0.00000000E+00  0.00000000E+00  0.00000000E+00
  0.00000000E+00  0.00000000E+00  0.00000000E+00
  0.00000000E+00  0.00000000E+00  0.00000000E+00
  0.00000000E+00  0.00000000E+00  0.00000000E+00
  0.00000000E+00  0.00000000E+00  0.00000000E+00
  0.00000000E+00  0.00000000E+00  0.00000000E+00
  0.00000000E+00  0.00000000E+00  0.00000000E+00
  0.00000000E+00  0.00000000E+00  0.00000000E+00
  0.00000000E+00  0.00000000E+00  0.00000000E+00
  0.00000000E+00  0.00000000E+00  0.00000000E+00
  0.00000000E+00  0.00000000E+00  0.00000000E+00
  0.00000000E+00  0.00000000E+00  0.00000000E+00
  0.00000000E+00  0.00000000E+00  0.00000000E+00
  0.00000000E+00  0.00000000E+00  0.00000000E+00
  0.00000000E+00  0.00000000E+00  0.00000000E+00
  0.00000000E+00  0.00000000E+00  0.00000000E+00
  0.00000000E+00  0.00000000E+00  0.00000000E+00
  0.00000000E+00  0.00000000E+00  0.00000000E+00
  0.00000000E+00  0.00000000E+00  0.00000000E+00
  0.00000000E+00  0.00000000E+00  0.00000000E+00
  0.00000000E+00  0.00000000E+00  0.00000000E+00
  0.00000000E+00  0.00000000E+00  0.00000000E+00
  0.00000000E+00  0.00000000E+00  0.00000000E+00
  0.00000000E+00  0.00000000E+00  0.00000000E+00
  0.00000000E+00  0.00000000E+00  0.00000000E+00
  0.00000000E+00  0.00000000E+00  0.00000000E+00
  0.00000000E+00  0.00000000E+00  0.00000000E+00
  0.00000000E+00  0.00000000E+00  0.00000000E+00
  0.00000000E+00  0.00000000E+00  0.00000000E+00
  0.00000000E+00  0.00000000E+00  0.00000000E+00
  0.00000000E+00  0.00000000E+00  0.00000000E+00
  0.00000000E+00  0.00000000E+00  0.00000000E+00
  0.00000000E+00  0.00000000E+00  0.00000000E+00
  0.00000000E+00  0.00000000E+00  0.00000000E+00
  0.00000000E+00  0.00000000E+00  0.00000000E+00
  0.00000000E+00  0.00000000E+00  0.00000000E+00
  0.00000000E+00  0.00000000E+00  0.00000000E+00
  0.00000000E+00  0.00000000E+00  0.00000000E+00
  0.00000000E+00  0.00000000E+00  0.00000000E+00
  0.00000000E+00  0.00000000E+00  0.00000000E+00
  0.00000000E+00  0.00000000E+00  0.00000000E+00
  0.00000000E+00  0.00000000E+00  0.00000000E+00
  0.00000000E+00  0.00000000E+00  0.00000000E+00
  0.00000000E+00  0.00000000E+00  0.00000000E+00
  0.00000000E+00  0.00000000E+00  0.00000000E+00
  0.00000000E+00  0.00000000E+00  0.00000000E+00
  0.00000000E+00  0.00000000E+00  0.00000000E+00
