Au  O Pd                                
   1.00000000000000     
    11.0025815152626798    0.0000000000000000    0.0000000000000000
     5.5012907576313399    9.5285150994265617    0.0000000000000000
     0.0000000000000000    0.0000000000000000   26.1917850942952910
   Au   O    Pd
    24     8    24
Selective dynamics
Direct
  0.8333333333333357  0.5833333333333357  0.3817991009012260   F   F   F
  0.6703359394017988  0.4133939347364712  0.4769104962035055   T   T   T
  0.0833333333333357  0.3333333333333357  0.3817991009012260   F   F   F
  0.0833333333333357  0.5833333333333357  0.3817991009012260   F   F   F
  0.9199791019410946  0.6572825143753601  0.4807043217384332   T   T   T
 -0.0293415248526434  0.5130426785267921  0.6102856218483740   T   T   T
  0.7589172336310757  0.2731803343452499  0.6294788231265371   T   T   T
  0.9224164440490437  0.1627579822287991  0.4743008394142086   T   T   T
  0.9194145636896869  0.9147682726798416  0.4751099363133278   T   T   T
  0.4142611677189665  0.4117260238461408  0.4785080016166569   T   T   T
  0.2228929267808830  0.0160647719224363  0.5567432927057231   T   T   T
  0.5833333333333357  0.3333333333333357  0.3817991009012260   F   F   F
  0.6687865802523085  0.1621183556557499  0.4768259806808388   T   T   T
  0.4992698629976418  0.7322440902902763  0.5627200299564459   T   T   T
  0.8333333333333357  0.8333333333333357  0.3817991009012260   F   F   F
  0.3333333333333357  0.5833333333333357  0.3817991009012260   F   F   F
  0.5833333333333357  0.8333333333333357  0.3817991009012260   F   F   F
  0.2374000255826365  0.5107064400595864  0.5605978184912251   T   T   T
  0.7839395492070416  0.4588351499793330  0.5692974654189056   T   T   T
  0.5090173385723497  0.4826724288108493  0.5664702769231748   T   T   T
  0.7579300334431167  0.7388396248449213  0.5653551678426686   T   T   T
  0.4164728622419674  0.1601421997098665  0.4745169593984875   T   T   T
  0.4442591048234585  0.2877615886084938  0.6116694234818204   T   T   T
  0.3333333333333357  0.3333333333333357  0.3817991009012260   F   F   F
  0.0817992866279710  0.6136065383385634  0.6186527707475170   T   T   T
  0.7917868142879185  0.0626037743613515  0.6303517083422866   T   T   T
  0.5755946629090426  0.8241206919916143  0.6115562987734693   T   T   T
  0.1446243938525855  0.3227747539500656  0.6320814109825503   T   T   T
  0.1011847160317454  0.8230907019169594  0.6062036489070364   T   T   T
  0.1514564010606328  0.0496478313081268  0.6321993726648929   T   T   T
  0.5400601839407734  0.3938386849699577  0.6415759380909619   T   T   T
  0.5584494626751875  0.0731794056600052  0.6111393323485186   T   T   T
  0.2462774359620881  0.7582174736803334  0.5533355001409419   T   T   T
  0.1692041180468133  0.9136871716797430  0.4674358964130144   T   T   T
  0.6693406454881606  0.6604331860036526  0.4731859524950638   T   T   T
  0.1642572449917132  0.6670511659128513  0.4694130234462924   T   T   T
  0.2491099270721678  0.2524631354928291  0.5642795588185694   T   T   T
  0.1647573769082519  0.4114869881582331  0.4744310483004354   T   T   T
  0.6659067951635086  0.9147776358503509  0.4721929410430196   T   T   T
  0.1676896475669887  0.1652418669511983  0.4698387399985666   T   T   T
  0.3333333333333357  0.0833333333333357  0.3817991009012260   F   F   F
 -0.0156732370281325  0.7687115318853172  0.5641335372227456   T   T   T
  0.0833333333333357  0.8333333333333357  0.3817991009012260   F   F   F
  0.0103853330969230  0.2537619952550819  0.6261451965939113   T   T   T
  0.9212446203833614  0.4101872294619379  0.4752605772741259   T   T   T
 -0.0167252508218775  0.0296552750497912  0.6229337636756879   T   T   T
  0.5833333333333357  0.0833333333333357  0.3817991009012260   F   F   F
  0.0833333333333357  0.0833333333333357  0.3817991009012260   F   F   F
  0.8333333333333357  0.3333333333333357  0.3817991009012260   F   F   F
  0.7307179466561907  0.0074273781939639  0.5676982109910865   T   T   T
  0.8333333333333357  0.0833333333333357  0.3817991009012260   F   F   F
  0.4170438754669219  0.9092812378638185  0.4731807808617224   T   T   T
  0.5833333333333357  0.5833333333333357  0.3817991009012260   F   F   F
  0.4204359174119201  0.6595663504586663  0.4743319263895199   T   T   T
  0.4837612449170930 -0.0051966867508879  0.5613901296361536   T   T   T
  0.3333333333333357  0.8333333333333357  0.3817991009012260   F   F   F
 
  0.00000000E+00  0.00000000E+00  0.00000000E+00
  0.00000000E+00  0.00000000E+00  0.00000000E+00
  0.00000000E+00  0.00000000E+00  0.00000000E+00
  0.00000000E+00  0.00000000E+00  0.00000000E+00
  0.00000000E+00  0.00000000E+00  0.00000000E+00
  0.00000000E+00  0.00000000E+00  0.00000000E+00
  0.00000000E+00  0.00000000E+00  0.00000000E+00
  0.00000000E+00  0.00000000E+00  0.00000000E+00
  0.00000000E+00  0.00000000E+00  0.00000000E+00
  0.00000000E+00  0.00000000E+00  0.00000000E+00
  0.00000000E+00  0.00000000E+00  0.00000000E+00
  0.00000000E+00  0.00000000E+00  0.00000000E+00
  0.00000000E+00  0.00000000E+00  0.00000000E+00
  0.00000000E+00  0.00000000E+00  0.00000000E+00
  0.00000000E+00  0.00000000E+00  0.00000000E+00
  0.00000000E+00  0.00000000E+00  0.00000000E+00
  0.00000000E+00  0.00000000E+00  0.00000000E+00
  0.00000000E+00  0.00000000E+00  0.00000000E+00
  0.00000000E+00  0.00000000E+00  0.00000000E+00
  0.00000000E+00  0.00000000E+00  0.00000000E+00
  0.00000000E+00  0.00000000E+00  0.00000000E+00
  0.00000000E+00  0.00000000E+00  0.00000000E+00
  0.00000000E+00  0.00000000E+00  0.00000000E+00
  0.00000000E+00  0.00000000E+00  0.00000000E+00
  0.00000000E+00  0.00000000E+00  0.00000000E+00
  0.00000000E+00  0.00000000E+00  0.00000000E+00
  0.00000000E+00  0.00000000E+00  0.00000000E+00
  0.00000000E+00  0.00000000E+00  0.00000000E+00
  0.00000000E+00  0.00000000E+00  0.00000000E+00
  0.00000000E+00  0.00000000E+00  0.00000000E+00
  0.00000000E+00  0.00000000E+00  0.00000000E+00
  0.00000000E+00  0.00000000E+00  0.00000000E+00
  0.00000000E+00  0.00000000E+00  0.00000000E+00
  0.00000000E+00  0.00000000E+00  0.00000000E+00
  0.00000000E+00  0.00000000E+00  0.00000000E+00
  0.00000000E+00  0.00000000E+00  0.00000000E+00
  0.00000000E+00  0.00000000E+00  0.00000000E+00
  0.00000000E+00  0.00000000E+00  0.00000000E+00
  0.00000000E+00  0.00000000E+00  0.00000000E+00
  0.00000000E+00  0.00000000E+00  0.00000000E+00
  0.00000000E+00  0.00000000E+00  0.00000000E+00
  0.00000000E+00  0.00000000E+00  0.00000000E+00
  0.00000000E+00  0.00000000E+00  0.00000000E+00
  0.00000000E+00  0.00000000E+00  0.00000000E+00
  0.00000000E+00  0.00000000E+00  0.00000000E+00
  0.00000000E+00  0.00000000E+00  0.00000000E+00
  0.00000000E+00  0.00000000E+00  0.00000000E+00
  0.00000000E+00  0.00000000E+00  0.00000000E+00
  0.00000000E+00  0.00000000E+00  0.00000000E+00
  0.00000000E+00  0.00000000E+00  0.00000000E+00
  0.00000000E+00  0.00000000E+00  0.00000000E+00
  0.00000000E+00  0.00000000E+00  0.00000000E+00
  0.00000000E+00  0.00000000E+00  0.00000000E+00
  0.00000000E+00  0.00000000E+00  0.00000000E+00
  0.00000000E+00  0.00000000E+00  0.00000000E+00
  0.00000000E+00  0.00000000E+00  0.00000000E+00
