Au Pd                                   
   1.00000000000000     
    11.0025815152626798    0.0000000000000000    0.0000000000000000
     5.5012907576313399    9.5285150994265617    0.0000000000000000
     0.0000000000000000    0.0000000000000000   24.4917850942952882
   Au   Pd
    24    24
Selective dynamics
Direct
  0.0833333333333357  0.0833333333333357  0.4083001692812189   F   F   F
  0.0833333333333357  0.3333333333333357  0.4083001692812189   F   F   F
  0.3333333333333357  0.0833333333333357  0.4083001692812189   F   F   F
  0.0833333333333357  0.5833333333333357  0.4083001692812189   F   F   F
  0.0005646263444809 -0.0007053856332917  0.6074573915077316   T   T   T
  0.8333333333333357  0.5833333333333357  0.4083001692812189   F   F   F
 -0.0018426875959863  0.5032121231714338  0.6111604883850054   T   T   T
  0.7495702606169004  0.2504548548685663  0.6115498179292006   T   T   T
  0.6704548311418100  0.4155996465080405  0.5092828503739443   T   T   T
  0.5833333333333357  0.5833333333333357  0.4083001692812189   F   F   F
  0.3333333333333357  0.3333333333333357  0.4083001692812189   F   F   F
  0.7492358114677486 -0.0012954564242405  0.6106128073416646   T   T   T
  0.7492229175117153  0.5026817760002362  0.6115854812431261   T   T   T
  0.4961658213976346  0.5032922095937893  0.6137672054686550   T   T   T
  0.1655577093861158  0.4151909401179244  0.5117299832569656   T   T   T
  0.2526286369770107  0.2487623751419772  0.6121797701330756   T   T   T
  0.1661647659730499  0.6697799759887841  0.5069240054466561   T   T   T
  0.3333333333333357  0.8333333333333357  0.4083001692812189   F   F   F
  0.6684603709325599  0.9160385762709790  0.5087643086923600   T   T   T
  0.5833333333333357  0.0833333333333357  0.4083001692812189   F   F   F
  0.5833333333333357  0.8333333333333357  0.4083001692812189   F   F   F
  0.5833333333333357  0.3333333333333357  0.4083001692812189   F   F   F
  0.4185765078111819  0.4163108030678286  0.5102325622876621   T   T   T
  0.2515729387683357 -0.0016567880861530  0.6083622967394324   T   T   T
  0.3333333333333357  0.5833333333333357  0.4083001692812189   F   F   F
  0.1668059589511325  0.1652392529968205  0.5091160193341829   T   T   T
  0.0004583448228897  0.7499483965087490  0.6030207599152093   T   T   T
  0.9170734277770595  0.9189671720150289  0.5057172942409311   T   T   T
  0.9182321554962896  0.1651296248203227  0.5068002390755716   T   T   T
  0.9150723297420248  0.6671514606377001  0.5076271886173249   T   T   T
  0.0000588725894835  0.2510202736227274  0.6037696857324860   T   T   T
  0.9167615967679131  0.4159355156018112  0.5083056626474928   T   T   T
  0.2490570620737989  0.5017783660589382  0.6071736839240622   T   T   T
  0.0833333333333357  0.8333333333333357  0.4083001692812189   F   F   F
  0.1667410266870890  0.9176246686285263  0.5074364346523101   T   T   T
  0.4994957058593191  0.7507302339872750  0.6045339221834908   T   T   T
  0.5010972473066952 -0.0015062518156024  0.6056332744738632   T   T   T
  0.4997766762892237  0.2496947921762979  0.6057453333137111   T   T   T
  0.2495690199835901  0.7496115049894475  0.6038805411541782   T   T   T
  0.4158146072556236  0.9162312585724278  0.5091702432909941   T   T   T
  0.6698124964611445  0.1651145746662345  0.5089039397552023   T   T   T
  0.8333333333333357  0.0833333333333357  0.4083001692812189   F   F   F
  0.6674344664025994  0.6662079616744133  0.5089643976857777   T   T   T
  0.8333333333333357  0.3333333333333357  0.4083001692812189   F   F   F
  0.8333333333333357  0.8333333333333357  0.4083001692812189   F   F   F
  0.4181356871451424  0.6684502899604797  0.5082854833289658   T   T   T
  0.4171956072949575  0.1646073086813631  0.5098405401141529   T   T   T
  0.7487860133653664  0.7511671551075243  0.6049890945942691   T   T   T
 
  0.00000000E+00  0.00000000E+00  0.00000000E+00
  0.00000000E+00  0.00000000E+00  0.00000000E+00
  0.00000000E+00  0.00000000E+00  0.00000000E+00
  0.00000000E+00  0.00000000E+00  0.00000000E+00
  0.00000000E+00  0.00000000E+00  0.00000000E+00
  0.00000000E+00  0.00000000E+00  0.00000000E+00
  0.00000000E+00  0.00000000E+00  0.00000000E+00
  0.00000000E+00  0.00000000E+00  0.00000000E+00
  0.00000000E+00  0.00000000E+00  0.00000000E+00
  0.00000000E+00  0.00000000E+00  0.00000000E+00
  0.00000000E+00  0.00000000E+00  0.00000000E+00
  0.00000000E+00  0.00000000E+00  0.00000000E+00
  0.00000000E+00  0.00000000E+00  0.00000000E+00
  0.00000000E+00  0.00000000E+00  0.00000000E+00
  0.00000000E+00  0.00000000E+00  0.00000000E+00
  0.00000000E+00  0.00000000E+00  0.00000000E+00
  0.00000000E+00  0.00000000E+00  0.00000000E+00
  0.00000000E+00  0.00000000E+00  0.00000000E+00
  0.00000000E+00  0.00000000E+00  0.00000000E+00
  0.00000000E+00  0.00000000E+00  0.00000000E+00
  0.00000000E+00  0.00000000E+00  0.00000000E+00
  0.00000000E+00  0.00000000E+00  0.00000000E+00
  0.00000000E+00  0.00000000E+00  0.00000000E+00
  0.00000000E+00  0.00000000E+00  0.00000000E+00
  0.00000000E+00  0.00000000E+00  0.00000000E+00
  0.00000000E+00  0.00000000E+00  0.00000000E+00
  0.00000000E+00  0.00000000E+00  0.00000000E+00
  0.00000000E+00  0.00000000E+00  0.00000000E+00
  0.00000000E+00  0.00000000E+00  0.00000000E+00
  0.00000000E+00  0.00000000E+00  0.00000000E+00
  0.00000000E+00  0.00000000E+00  0.00000000E+00
  0.00000000E+00  0.00000000E+00  0.00000000E+00
  0.00000000E+00  0.00000000E+00  0.00000000E+00
  0.00000000E+00  0.00000000E+00  0.00000000E+00
  0.00000000E+00  0.00000000E+00  0.00000000E+00
  0.00000000E+00  0.00000000E+00  0.00000000E+00
  0.00000000E+00  0.00000000E+00  0.00000000E+00
  0.00000000E+00  0.00000000E+00  0.00000000E+00
  0.00000000E+00  0.00000000E+00  0.00000000E+00
  0.00000000E+00  0.00000000E+00  0.00000000E+00
  0.00000000E+00  0.00000000E+00  0.00000000E+00
  0.00000000E+00  0.00000000E+00  0.00000000E+00
  0.00000000E+00  0.00000000E+00  0.00000000E+00
  0.00000000E+00  0.00000000E+00  0.00000000E+00
  0.00000000E+00  0.00000000E+00  0.00000000E+00
  0.00000000E+00  0.00000000E+00  0.00000000E+00
  0.00000000E+00  0.00000000E+00  0.00000000E+00
  0.00000000E+00  0.00000000E+00  0.00000000E+00
