Au  O Pd                                
   1.00000000000000     
    11.0025815152626798    0.0000000000000000    0.0000000000000000
     5.5012907576313399    9.5285150994265617    0.0000000000000000
     0.0000000000000000    0.0000000000000000   26.1917850942952910
   Au   O    Pd
    24     8    24
Selective dynamics
Direct
  0.9160498066102555  0.9168097401573573  0.4731381433208031   T   T   T
  0.7475020081391212  0.2436645724067614  0.5598903430608336   T   T   T
  0.6397509711439446  0.9052255808145097  0.4763341750806289   T   T   T
  0.0061747995331661  0.0009974055452665  0.5618281613288010   T   T   T
  0.6739029908126317  0.6549281581627884  0.5290118887346198   T   T   T
  0.9096976675009202  0.4220912356575415  0.4749261308689842   T   T   T
  0.9893675532170427  0.2663035737037989  0.5644339419425575   T   T   T
  0.8333333333333357  0.5833333333333357  0.3817991009012260   F   F   F
  0.0833333333333357  0.5833333333333357  0.3817991009012260   F   F   F
  0.9009748485228543  0.6753618810424227  0.4758731051021985   T   T   T
 -0.0015999931294470  0.5087177626320861  0.5672604668088509   T   T   T
  0.7304590589792269  0.7754015569470716  0.6172638786538699   T   T   T
  0.1799816567480595  0.9226927374002568  0.4722944974209131   T   T   T
  0.6655352622230500  0.4226143424724706  0.4712559680793527   T   T   T
  0.3333333333333357  0.0833333333333357  0.3817991009012260   F   F   F
  0.8333333333333357  0.0833333333333357  0.3817991009012260   F   F   F
  0.3987624501244531  0.9351239150098277  0.5279782975888729   T   T   T
  0.4377691895796965  0.6859721683601424  0.4739695282622781   T   T   T
  0.1657673686846821  0.4204688026561031  0.4744152266726593   T   T   T
  0.2529306348657617  0.2387500799646534  0.5618970572443766   T   T   T
  0.4993390723282950  0.2419762796823208  0.5592381018338380   T   T   T
  0.5833333333333357  0.0833333333333357  0.3817991009012260   F   F   F
  0.1797394980081753  0.6712272630460991  0.4742008037707080   T   T   T
  0.0165020850642942  0.7464062844830115  0.5660993424164392   T   T   T
  0.3453703750975314  0.5719921151766351  0.6043433850264339   T   T   T
  0.2904652580109510  0.1747204035416975  0.6382028270080742   T   T   T
  0.0640174271151939  0.0999660077912249  0.6200537160062085   T   T   T
  0.8528319402091897  0.8702413189901643  0.6199736222072634   T   T   T
  0.2940898892252458  0.8169815705933459  0.6365474261394016   T   T   T
  0.8838207042756935  0.5680942333447691  0.6381452027760346   T   T   T
  0.4651761799137955  0.9096707144916115  0.6624052945897854   T   T   T
  0.6594442960113345  0.3922124550205026  0.6216961895237946   T   T   T
  0.4218929405790692  0.4192481470337031  0.4708998182019773   T   T   T
  0.0833333333333357  0.0833333333333357  0.3817991009012260   F   F   F
  0.5833333333333357  0.3333333333333357  0.3817991009012260   F   F   F
  0.5037478364167749  0.0291632295358958  0.6136804364469374   T   T   T
  0.4133603079784857  0.1646434049946434  0.4711067775580171   T   T   T
  0.3333333333333357  0.5833333333333357  0.3817991009012260   F   F   F
  0.2581060759079874  0.4926357044207257  0.5609453721232583   T   T   T
  0.2597618974984767  0.7614701486434158  0.5681810722319987   T   T   T
  0.5224409152281585  0.5186829998624672  0.5670153707194708   T   T   T
  0.5110988896020701  0.7373232536895394  0.6210461648793074   T   T   T
  0.5833333333333357  0.8333333333333357  0.3817991009012260   F   F   F
  0.3333333333333357  0.8333333333333357  0.3817991009012260   F   F   F
  0.2650465396796794  0.0083771754563396  0.6362160378684082   T   T   T
  0.1659067773725760  0.1693500716201922  0.4718653944662490   T   T   T
  0.6647093325123093  0.1610715709301184  0.4719421277458188   T   T   T
  0.7405995231624825  0.9908593129821124  0.5606481966482492   T   T   T
  0.8333333333333357  0.3333333333333357  0.3817991009012260   F   F   F
  0.0833333333333357  0.8333333333333357  0.3817991009012260   F   F   F
  0.0833333333333357  0.3333333333333357  0.3817991009012260   F   F   F
  0.7707547423906536  0.4816142736475039  0.6247270990115891   T   T   T
  0.8333333333333357  0.8333333333333357  0.3817991009012260   F   F   F
  0.9171297095485743  0.1670215900172556  0.4709057795634919   T   T   T
  0.5833333333333357  0.5833333333333357  0.3817991009012260   F   F   F
  0.3333333333333357  0.3333333333333357  0.3817991009012260   F   F   F
 
  0.00000000E+00  0.00000000E+00  0.00000000E+00
  0.00000000E+00  0.00000000E+00  0.00000000E+00
  0.00000000E+00  0.00000000E+00  0.00000000E+00
  0.00000000E+00  0.00000000E+00  0.00000000E+00
  0.00000000E+00  0.00000000E+00  0.00000000E+00
  0.00000000E+00  0.00000000E+00  0.00000000E+00
  0.00000000E+00  0.00000000E+00  0.00000000E+00
  0.00000000E+00  0.00000000E+00  0.00000000E+00
  0.00000000E+00  0.00000000E+00  0.00000000E+00
  0.00000000E+00  0.00000000E+00  0.00000000E+00
  0.00000000E+00  0.00000000E+00  0.00000000E+00
  0.00000000E+00  0.00000000E+00  0.00000000E+00
  0.00000000E+00  0.00000000E+00  0.00000000E+00
  0.00000000E+00  0.00000000E+00  0.00000000E+00
  0.00000000E+00  0.00000000E+00  0.00000000E+00
  0.00000000E+00  0.00000000E+00  0.00000000E+00
  0.00000000E+00  0.00000000E+00  0.00000000E+00
  0.00000000E+00  0.00000000E+00  0.00000000E+00
  0.00000000E+00  0.00000000E+00  0.00000000E+00
  0.00000000E+00  0.00000000E+00  0.00000000E+00
  0.00000000E+00  0.00000000E+00  0.00000000E+00
  0.00000000E+00  0.00000000E+00  0.00000000E+00
  0.00000000E+00  0.00000000E+00  0.00000000E+00
  0.00000000E+00  0.00000000E+00  0.00000000E+00
  0.00000000E+00  0.00000000E+00  0.00000000E+00
  0.00000000E+00  0.00000000E+00  0.00000000E+00
  0.00000000E+00  0.00000000E+00  0.00000000E+00
  0.00000000E+00  0.00000000E+00  0.00000000E+00
  0.00000000E+00  0.00000000E+00  0.00000000E+00
  0.00000000E+00  0.00000000E+00  0.00000000E+00
  0.00000000E+00  0.00000000E+00  0.00000000E+00
  0.00000000E+00  0.00000000E+00  0.00000000E+00
  0.00000000E+00  0.00000000E+00  0.00000000E+00
  0.00000000E+00  0.00000000E+00  0.00000000E+00
  0.00000000E+00  0.00000000E+00  0.00000000E+00
  0.00000000E+00  0.00000000E+00  0.00000000E+00
  0.00000000E+00  0.00000000E+00  0.00000000E+00
  0.00000000E+00  0.00000000E+00  0.00000000E+00
  0.00000000E+00  0.00000000E+00  0.00000000E+00
  0.00000000E+00  0.00000000E+00  0.00000000E+00
  0.00000000E+00  0.00000000E+00  0.00000000E+00
  0.00000000E+00  0.00000000E+00  0.00000000E+00
  0.00000000E+00  0.00000000E+00  0.00000000E+00
  0.00000000E+00  0.00000000E+00  0.00000000E+00
  0.00000000E+00  0.00000000E+00  0.00000000E+00
  0.00000000E+00  0.00000000E+00  0.00000000E+00
  0.00000000E+00  0.00000000E+00  0.00000000E+00
  0.00000000E+00  0.00000000E+00  0.00000000E+00
  0.00000000E+00  0.00000000E+00  0.00000000E+00
  0.00000000E+00  0.00000000E+00  0.00000000E+00
  0.00000000E+00  0.00000000E+00  0.00000000E+00
  0.00000000E+00  0.00000000E+00  0.00000000E+00
  0.00000000E+00  0.00000000E+00  0.00000000E+00
  0.00000000E+00  0.00000000E+00  0.00000000E+00
  0.00000000E+00  0.00000000E+00  0.00000000E+00
  0.00000000E+00  0.00000000E+00  0.00000000E+00
