Au  O Pd                                
   1.00000000000000     
    11.0025815152626798    0.0000000000000000    0.0000000000000000
     5.5012907576313399    9.5285150994265617    0.0000000000000000
     0.0000000000000000    0.0000000000000000   26.1917850942952910
   Au   O    Pd
    24     8    24
Selective dynamics
Direct
  0.9157696290521828  0.9093160326192191  0.4743735484631209   T   T   T
  0.7499048970321907  0.2426753716516559  0.5609289204332267   T   T   T
  0.6604633640698652  0.8973504142151353  0.4750956378066386   T   T   T
  0.0067474073723140 -0.0032877986755600  0.5627798733631029   T   T   T
  0.6655068367035439  0.6550435067580783  0.5125865901352290   T   T   T
  0.9098923885034288  0.4236232812934958  0.4745069953888109   T   T   T
 -0.0154501883382121  0.2709600078673751  0.5640788190963303   T   T   T
  0.8333333333333357  0.5833333333333357  0.3817991009012260   F   F   F
  0.0833333333333357  0.5833333333333357  0.3817991009012260   F   F   F
  0.9205348845220472  0.6614391993974110  0.5043564460632577   T   T   T
  0.0323806700573449  0.4779320925921642  0.6043127674435732   T   T   T
  0.7405253561161993  0.7537547760816203  0.5995874181134632   T   T   T
  0.1727087338044801  0.9192163374112042  0.4717410155497720   T   T   T
  0.6650803981482026  0.4167570578079147  0.4712407169637824   T   T   T
  0.3333333333333357  0.0833333333333357  0.3817991009012260   F   F   F
  0.8333333333333357  0.0833333333333357  0.3817991009012260   F   F   F
  0.4050817760621428  0.9276533260490973  0.5151195582268747   T   T   T
  0.4247756053125458  0.6751722110305253  0.4717821781950740   T   T   T
  0.1661158476543609  0.4115909194876426  0.4739096550468451   T   T   T
  0.2485184573762665  0.2397755756197308  0.5626029053674854   T   T   T
  0.4969027799116432  0.2418608411833819  0.5574633619367021   T   T   T
  0.5833333333333357  0.0833333333333357  0.3817991009012260   F   F   F
  0.1697347222505081  0.6675248188350456  0.4733115339723002   T   T   T
  0.0197259098843899  0.7418573495754969  0.5912537431757480   T   T   T
  0.3324417919213695  0.5702764813594684  0.6047806838675851   T   T   T
  0.3123494026735959  0.1524389354325398  0.6366041483905653   T   T   T
  0.0772959940134525  0.0887170892815333  0.6183578423384861   T   T   T
  0.8273195530745616  0.8776498907677699  0.6276112791593275   T   T   T
  0.3088618593858687  0.7979986484928653  0.6303272404447557   T   T   T
  0.8568053434823677  0.5715143495054537  0.6501941183070752   T   T   T
  0.4862149468678298  0.8812995747774750  0.6508423872561881   T   T   T
  0.6464540913795280  0.3883694976099803  0.6218068424545899   T   T   T
  0.4185727748989101  0.4159193837265923  0.4699671521519031   T   T   T
  0.0833333333333357  0.0833333333333357  0.3817991009012260   F   F   F
  0.5833333333333357  0.3333333333333357  0.3817991009012260   F   F   F
  0.5071535934384561  0.0145749663663367  0.6029366874394847   T   T   T
  0.4157626539893013  0.1572957907141944  0.4708308966071000   T   T   T
  0.3333333333333357  0.5833333333333357  0.3817991009012260   F   F   F
  0.2437917532197468  0.4931520446621068  0.5595037605584827   T   T   T
  0.2522131375250671  0.7504521965114634  0.5644065851269542   T   T   T
  0.5090494167892263  0.4983933840023620  0.5644533527891787   T   T   T
  0.5120298825951194  0.7243214538092125  0.6044176681821452   T   T   T
  0.5833333333333357  0.8333333333333357  0.3817991009012260   F   F   F
  0.3333333333333357  0.8333333333333357  0.3817991009012260   F   F   F
  0.2823721384309673 -0.0114198073996957  0.6309402458152125   T   T   T
  0.1651257473327699  0.1654747837507521  0.4723085079611169   T   T   T
  0.6664635690620616  0.1576746799563214  0.4719866757662816   T   T   T
  0.7479050168214546 -0.0093218246071388  0.5628543997626851   T   T   T
  0.8333333333333357  0.3333333333333357  0.3817991009012260   F   F   F
  0.0833333333333357  0.8333333333333357  0.3817991009012260   F   F   F
  0.0833333333333357  0.3333333333333357  0.3817991009012260   F   F   F
  0.7548846078868700  0.4785136996901611  0.6290460530786371   T   T   T
  0.8333333333333357  0.8333333333333357  0.3817991009012260   F   F   F
  0.9165083309632992  0.1652236954393121  0.4717170313173499   T   T   T
  0.5833333333333357  0.5833333333333357  0.3817991009012260   F   F   F
  0.3333333333333357  0.3333333333333357  0.3817991009012260   F   F   F
 
  0.00000000E+00  0.00000000E+00  0.00000000E+00
  0.00000000E+00  0.00000000E+00  0.00000000E+00
  0.00000000E+00  0.00000000E+00  0.00000000E+00
  0.00000000E+00  0.00000000E+00  0.00000000E+00
  0.00000000E+00  0.00000000E+00  0.00000000E+00
  0.00000000E+00  0.00000000E+00  0.00000000E+00
  0.00000000E+00  0.00000000E+00  0.00000000E+00
  0.00000000E+00  0.00000000E+00  0.00000000E+00
  0.00000000E+00  0.00000000E+00  0.00000000E+00
  0.00000000E+00  0.00000000E+00  0.00000000E+00
  0.00000000E+00  0.00000000E+00  0.00000000E+00
  0.00000000E+00  0.00000000E+00  0.00000000E+00
  0.00000000E+00  0.00000000E+00  0.00000000E+00
  0.00000000E+00  0.00000000E+00  0.00000000E+00
  0.00000000E+00  0.00000000E+00  0.00000000E+00
  0.00000000E+00  0.00000000E+00  0.00000000E+00
  0.00000000E+00  0.00000000E+00  0.00000000E+00
  0.00000000E+00  0.00000000E+00  0.00000000E+00
  0.00000000E+00  0.00000000E+00  0.00000000E+00
  0.00000000E+00  0.00000000E+00  0.00000000E+00
  0.00000000E+00  0.00000000E+00  0.00000000E+00
  0.00000000E+00  0.00000000E+00  0.00000000E+00
  0.00000000E+00  0.00000000E+00  0.00000000E+00
  0.00000000E+00  0.00000000E+00  0.00000000E+00
  0.00000000E+00  0.00000000E+00  0.00000000E+00
  0.00000000E+00  0.00000000E+00  0.00000000E+00
  0.00000000E+00  0.00000000E+00  0.00000000E+00
  0.00000000E+00  0.00000000E+00  0.00000000E+00
  0.00000000E+00  0.00000000E+00  0.00000000E+00
  0.00000000E+00  0.00000000E+00  0.00000000E+00
  0.00000000E+00  0.00000000E+00  0.00000000E+00
  0.00000000E+00  0.00000000E+00  0.00000000E+00
  0.00000000E+00  0.00000000E+00  0.00000000E+00
  0.00000000E+00  0.00000000E+00  0.00000000E+00
  0.00000000E+00  0.00000000E+00  0.00000000E+00
  0.00000000E+00  0.00000000E+00  0.00000000E+00
  0.00000000E+00  0.00000000E+00  0.00000000E+00
  0.00000000E+00  0.00000000E+00  0.00000000E+00
  0.00000000E+00  0.00000000E+00  0.00000000E+00
  0.00000000E+00  0.00000000E+00  0.00000000E+00
  0.00000000E+00  0.00000000E+00  0.00000000E+00
  0.00000000E+00  0.00000000E+00  0.00000000E+00
  0.00000000E+00  0.00000000E+00  0.00000000E+00
  0.00000000E+00  0.00000000E+00  0.00000000E+00
  0.00000000E+00  0.00000000E+00  0.00000000E+00
  0.00000000E+00  0.00000000E+00  0.00000000E+00
  0.00000000E+00  0.00000000E+00  0.00000000E+00
  0.00000000E+00  0.00000000E+00  0.00000000E+00
  0.00000000E+00  0.00000000E+00  0.00000000E+00
  0.00000000E+00  0.00000000E+00  0.00000000E+00
  0.00000000E+00  0.00000000E+00  0.00000000E+00
  0.00000000E+00  0.00000000E+00  0.00000000E+00
  0.00000000E+00  0.00000000E+00  0.00000000E+00
  0.00000000E+00  0.00000000E+00  0.00000000E+00
  0.00000000E+00  0.00000000E+00  0.00000000E+00
  0.00000000E+00  0.00000000E+00  0.00000000E+00
