Au Pd                                   
   1.00000000000000     
    11.0025815152626798    0.0000000000000000    0.0000000000000000
     5.5012907576313399    9.5285150994265617    0.0000000000000000
     0.0000000000000000    0.0000000000000000   24.4917850942952882
   Au   Pd
    24    24
Selective dynamics
Direct
  0.0833333333333357  0.0833333333333357  0.4083001692812189   F   F   F
  0.0833333333333357  0.8333333333333357  0.4083001692812189   F   F   F
  0.0009337591230892  0.4988377684624886  0.6090546646511317   T   T   T
  0.2512488883702248 -0.0002835404602514  0.6101303071831939   T   T   T
  0.0833333333333357  0.5833333333333357  0.4083001692812189   F   F   F
 -0.0003054439781399  0.2509067591128244  0.6076504587909992   T   T   T
  0.0833333333333357  0.3333333333333357  0.4083001692812189   F   F   F
 -0.0002748903955615 -0.0017982005033852  0.6090666795631144   T   T   T
  0.9133924463968204  0.6679382269763943  0.5069044889305105   T   T   T
  0.2516691024546404  0.7481053112383954  0.6152861862663042   T   T   T
  0.3333333333333357  0.5833333333333357  0.4083001692812189   F   F   F
  0.1650249869751655  0.6676635407484897  0.5112551425795496   T   T   T
  0.7487397964943440  0.7485965314874652  0.6094472045911487   T   T   T
  0.3333333333333357  0.8333333333333357  0.4083001692812189   F   F   F
  0.4990282253649212  0.0020100415919131  0.6090508195099607   T   T   T
  0.5833333333333357  0.5833333333333357  0.4083001692812189   F   F   F
  0.4161220639792744  0.6671002202131133  0.5115822496094042   T   T   T
  0.4172846595629430  0.9191344480147586  0.5070874990944769   T   T   T
  0.6658030999173081  0.1654401116332085  0.5049022709896287   T   T   T
  0.7499309924857348 -0.0009133630695354  0.6083189295479936   T   T   T
  0.8333333333333357  0.3333333333333357  0.4083001692812189   F   F   F
  0.6674755559013273  0.4155185316577694  0.5093070858466442   T   T   T
  0.7470082902936673  0.2522710456486668  0.6118768072334688   T   T   T
  0.2534771478289400  0.4959375780394857  0.6109379489147233   T   T   T
  0.5833333333333357  0.8333333333333357  0.4083001692812189   F   F   F
  0.5001839162023148  0.4994419924821765  0.6068482650510683   T   T   T
 -0.0001168965710568  0.7487316969666442  0.6064323927543580   T   T   T
  0.9153209073652062  0.9185119970342669  0.5066503256228762   T   T   T
  0.4145652834273231  0.1681894270979455  0.5046821139264668   T   T   T
  0.4146855319319948  0.4154173278021270  0.5070437999971682   T   T   T
  0.5833333333333357  0.3333333333333357  0.4083001692812189   F   F   F
  0.1646348521935123  0.9189599830723156  0.5100504437242146   T   T   T
  0.3333333333333357  0.0833333333333357  0.4083001692812189   F   F   F
  0.4998202459517577  0.2496801041751884  0.6022208072374506   T   T   T
  0.5012824163612846  0.7486484136136849  0.6061351610526264   T   T   T
  0.1685536360651049  0.4137878919204606  0.5077709806229080   T   T   T
  0.1656422495149899  0.1676272391541553  0.5074673495482251   T   T   T
  0.9175801956077355  0.4160272477100656  0.5082493461605561   T   T   T
  0.2514489192287278  0.2493913012654870  0.6028998581345899   T   T   T
  0.9178802563117301  0.1650845506444761  0.5084217817263249   T   T   T
  0.8333333333333357  0.5833333333333357  0.4083001692812189   F   F   F
  0.6675382979789179  0.6670717696172761  0.5071763542748257   T   T   T
  0.7480535894111486  0.5012295509144391  0.6050921439521634   T   T   T
  0.8333333333333357  0.8333333333333357  0.4083001692812189   F   F   F
  0.5833333333333357  0.0833333333333357  0.4083001692812189   F   F   F
  0.6655946021598979  0.9177757239834302  0.5053504484820087   T   T   T
  0.8333333333333357  0.0833333333333357  0.4083001692812189   F   F   F
  0.3333333333333357  0.3333333333333357  0.4083001692812189   F   F   F
 
  0.00000000E+00  0.00000000E+00  0.00000000E+00
  0.00000000E+00  0.00000000E+00  0.00000000E+00
  0.00000000E+00  0.00000000E+00  0.00000000E+00
  0.00000000E+00  0.00000000E+00  0.00000000E+00
  0.00000000E+00  0.00000000E+00  0.00000000E+00
  0.00000000E+00  0.00000000E+00  0.00000000E+00
  0.00000000E+00  0.00000000E+00  0.00000000E+00
  0.00000000E+00  0.00000000E+00  0.00000000E+00
  0.00000000E+00  0.00000000E+00  0.00000000E+00
  0.00000000E+00  0.00000000E+00  0.00000000E+00
  0.00000000E+00  0.00000000E+00  0.00000000E+00
  0.00000000E+00  0.00000000E+00  0.00000000E+00
  0.00000000E+00  0.00000000E+00  0.00000000E+00
  0.00000000E+00  0.00000000E+00  0.00000000E+00
  0.00000000E+00  0.00000000E+00  0.00000000E+00
  0.00000000E+00  0.00000000E+00  0.00000000E+00
  0.00000000E+00  0.00000000E+00  0.00000000E+00
  0.00000000E+00  0.00000000E+00  0.00000000E+00
  0.00000000E+00  0.00000000E+00  0.00000000E+00
  0.00000000E+00  0.00000000E+00  0.00000000E+00
  0.00000000E+00  0.00000000E+00  0.00000000E+00
  0.00000000E+00  0.00000000E+00  0.00000000E+00
  0.00000000E+00  0.00000000E+00  0.00000000E+00
  0.00000000E+00  0.00000000E+00  0.00000000E+00
  0.00000000E+00  0.00000000E+00  0.00000000E+00
  0.00000000E+00  0.00000000E+00  0.00000000E+00
  0.00000000E+00  0.00000000E+00  0.00000000E+00
  0.00000000E+00  0.00000000E+00  0.00000000E+00
  0.00000000E+00  0.00000000E+00  0.00000000E+00
  0.00000000E+00  0.00000000E+00  0.00000000E+00
  0.00000000E+00  0.00000000E+00  0.00000000E+00
  0.00000000E+00  0.00000000E+00  0.00000000E+00
  0.00000000E+00  0.00000000E+00  0.00000000E+00
  0.00000000E+00  0.00000000E+00  0.00000000E+00
  0.00000000E+00  0.00000000E+00  0.00000000E+00
  0.00000000E+00  0.00000000E+00  0.00000000E+00
  0.00000000E+00  0.00000000E+00  0.00000000E+00
  0.00000000E+00  0.00000000E+00  0.00000000E+00
  0.00000000E+00  0.00000000E+00  0.00000000E+00
  0.00000000E+00  0.00000000E+00  0.00000000E+00
  0.00000000E+00  0.00000000E+00  0.00000000E+00
  0.00000000E+00  0.00000000E+00  0.00000000E+00
  0.00000000E+00  0.00000000E+00  0.00000000E+00
  0.00000000E+00  0.00000000E+00  0.00000000E+00
  0.00000000E+00  0.00000000E+00  0.00000000E+00
  0.00000000E+00  0.00000000E+00  0.00000000E+00
  0.00000000E+00  0.00000000E+00  0.00000000E+00
  0.00000000E+00  0.00000000E+00  0.00000000E+00
