Au Pd                                   
   1.00000000000000     
    11.0025815152626798    0.0000000000000000    0.0000000000000000
     5.5012907576313399    9.5285150994265617    0.0000000000000000
     0.0000000000000000    0.0000000000000000   24.4917850942952882
   Au   Pd
    24    24
Selective dynamics
Direct
  0.2475515722880152  0.7530500078933144  0.6129992267349457   T   T   T
  0.7513919237536562  0.2490922166469359  0.6158454116311513   T   T   T
  0.0833333333333357  0.8333333333333357  0.4083001692812189   F   F   F
  0.0017121833906530  0.2511897943863822  0.6118955915266034   T   T   T
  0.9163369342997665  0.6636719721727632  0.5086614703667630   T   T   T
  0.0833333333333357  0.5833333333333357  0.4083001692812189   F   F   F
  0.3333333333333357  0.0833333333333357  0.4083001692812189   F   F   F
  0.8333333333333357  0.8333333333333357  0.4083001692812189   F   F   F
  0.9167711586968068  0.1650575549509508  0.5084225473242840   T   T   T
  0.6654777164211124  0.4188096551008457  0.5115057912979787   T   T   T
  0.3333333333333357  0.3333333333333357  0.4083001692812189   F   F   F
  0.1667952850794444  0.1687058135401041  0.5072708362053354   T   T   T
  0.5833333333333357  0.5833333333333357  0.4083001692812189   F   F   F
  0.7533361885642749 -0.0029850404209178  0.6125490330233168   T   T   T
  0.6656774766189849  0.1654046583119696  0.5083292647389159   T   T   T
  0.1695382875572323  0.6641837768359333  0.5096446229575674   T   T   T
  0.2487906093889948  0.4964176180702608  0.6107732952795066   T   T   T
  0.5020336506196093  0.7497225840836522  0.6079475772013441   T   T   T
  0.1694291124306625  0.9151714647946879  0.5076702991991632   T   T   T
  0.6645591527550908  0.9156305271383013  0.5074350118149324   T   T   T
  0.4991239777102583  0.0015578688336890  0.6096147181061373   T   T   T
  0.5833333333333357  0.3333333333333357  0.4083001692812189   F   F   F
  0.4993733169283467  0.4996816796833826  0.6113761387884089   T   T   T
  0.8333333333333357  0.3333333333333357  0.4083001692812189   F   F   F
  0.2507981690603832  0.2491930072500648  0.6040527062269073   T   T   T
  0.1676038938430658  0.4153380740179372  0.5079014814755979   T   T   T
  0.2497994306216044  0.0014596027905961  0.6047213004568464   T   T   T
  0.0001881507877033  0.7491299703130059  0.6060404142389794   T   T   T
  0.0008712425944028 -0.0003326936334385  0.6062803750636484   T   T   T
 -0.0010171111242351  0.5003752523185470  0.6047240675946500   T   T   T
  0.9165310606423864  0.4171821379949298  0.5075137354624634   T   T   T
  0.0833333333333357  0.3333333333333357  0.4083001692812189   F   F   F
  0.3333333333333357  0.5833333333333357  0.4083001692812189   F   F   F
  0.9165248299614096  0.9156308484307422  0.5090480766121281   T   T   T
  0.3333333333333357  0.8333333333333357  0.4083001692812189   F   F   F
  0.8333333333333357  0.5833333333333357  0.4083001692812189   F   F   F
  0.4161538487115585  0.1669466779613004  0.5076007552162329   T   T   T
  0.4157408950799948  0.4162899216739953  0.5086869184648023   T   T   T
  0.0833333333333357  0.0833333333333357  0.4083001692812189   F   F   F
  0.4171799934635044  0.6667026806919295  0.5078134484400282   T   T   T
  0.7518316032673169  0.5002841465482143  0.6060606037238561   T   T   T
  0.5833333333333357  0.8333333333333357  0.4083001692812189   F   F   F
  0.4189394539234335  0.9139262104365123  0.5071249065999266   T   T   T
  0.6657517620959748  0.6662232314675558  0.5071257619505481   T   T   T
  0.8333333333333357  0.0833333333333357  0.4083001692812189   F   F   F
  0.5008597098433436  0.2492573968412631  0.6054391525081441   T   T   T
  0.5833333333333357  0.0833333333333357  0.4083001692812189   F   F   F
  0.7525923117449745  0.7474367001662330  0.6053518491110012   T   T   T
 
  0.00000000E+00  0.00000000E+00  0.00000000E+00
  0.00000000E+00  0.00000000E+00  0.00000000E+00
  0.00000000E+00  0.00000000E+00  0.00000000E+00
  0.00000000E+00  0.00000000E+00  0.00000000E+00
  0.00000000E+00  0.00000000E+00  0.00000000E+00
  0.00000000E+00  0.00000000E+00  0.00000000E+00
  0.00000000E+00  0.00000000E+00  0.00000000E+00
  0.00000000E+00  0.00000000E+00  0.00000000E+00
  0.00000000E+00  0.00000000E+00  0.00000000E+00
  0.00000000E+00  0.00000000E+00  0.00000000E+00
  0.00000000E+00  0.00000000E+00  0.00000000E+00
  0.00000000E+00  0.00000000E+00  0.00000000E+00
  0.00000000E+00  0.00000000E+00  0.00000000E+00
  0.00000000E+00  0.00000000E+00  0.00000000E+00
  0.00000000E+00  0.00000000E+00  0.00000000E+00
  0.00000000E+00  0.00000000E+00  0.00000000E+00
  0.00000000E+00  0.00000000E+00  0.00000000E+00
  0.00000000E+00  0.00000000E+00  0.00000000E+00
  0.00000000E+00  0.00000000E+00  0.00000000E+00
  0.00000000E+00  0.00000000E+00  0.00000000E+00
  0.00000000E+00  0.00000000E+00  0.00000000E+00
  0.00000000E+00  0.00000000E+00  0.00000000E+00
  0.00000000E+00  0.00000000E+00  0.00000000E+00
  0.00000000E+00  0.00000000E+00  0.00000000E+00
  0.00000000E+00  0.00000000E+00  0.00000000E+00
  0.00000000E+00  0.00000000E+00  0.00000000E+00
  0.00000000E+00  0.00000000E+00  0.00000000E+00
  0.00000000E+00  0.00000000E+00  0.00000000E+00
  0.00000000E+00  0.00000000E+00  0.00000000E+00
  0.00000000E+00  0.00000000E+00  0.00000000E+00
  0.00000000E+00  0.00000000E+00  0.00000000E+00
  0.00000000E+00  0.00000000E+00  0.00000000E+00
  0.00000000E+00  0.00000000E+00  0.00000000E+00
  0.00000000E+00  0.00000000E+00  0.00000000E+00
  0.00000000E+00  0.00000000E+00  0.00000000E+00
  0.00000000E+00  0.00000000E+00  0.00000000E+00
  0.00000000E+00  0.00000000E+00  0.00000000E+00
  0.00000000E+00  0.00000000E+00  0.00000000E+00
  0.00000000E+00  0.00000000E+00  0.00000000E+00
  0.00000000E+00  0.00000000E+00  0.00000000E+00
  0.00000000E+00  0.00000000E+00  0.00000000E+00
  0.00000000E+00  0.00000000E+00  0.00000000E+00
  0.00000000E+00  0.00000000E+00  0.00000000E+00
  0.00000000E+00  0.00000000E+00  0.00000000E+00
  0.00000000E+00  0.00000000E+00  0.00000000E+00
  0.00000000E+00  0.00000000E+00  0.00000000E+00
  0.00000000E+00  0.00000000E+00  0.00000000E+00
  0.00000000E+00  0.00000000E+00  0.00000000E+00
