Au  O Pd                                
   1.00000000000000     
    11.0025815152626798    0.0000000000000000    0.0000000000000000
     5.5012907576313399    9.5285150994265617    0.0000000000000000
     0.0000000000000000    0.0000000000000000   26.1917850942952910
   Au   O    Pd
    24     8    24
Selective dynamics
Direct
  0.8333333333333357  0.0833333333333357  0.3817991009012260   F   F   F
  0.6662656863186435  0.1677697738258867  0.4762680400228698   T   T   T
  0.9189030337118398  0.1651447325530976  0.4767580028961373   T   T   T
  0.0329190956175332  0.0375165552269641  0.5714721020086663   T   T   T
  0.8333333333333357  0.8333333333333357  0.3817991009012260   F   F   F
  0.9200828658883103  0.4148078637160505  0.4753810289650162   T   T   T
  0.0699696858623821  0.3002294081806176  0.5637024149819653   T   T   T
  0.6670637187013654  0.6672752752389763  0.4766181097654236   T   T   T
  0.8333333333333357  0.5833333333333357  0.3817991009012260   F   F   F
  0.7614755134333433  0.2517922898905905  0.5699985340015484   T   T   T
  0.0307403839513926  0.5229166958051631  0.6372372558983717   T   T   T
  0.1691636716841896  0.9126949702716954  0.4750103194286324   T   T   T
  0.8333333333333357  0.3333333333333357  0.3817991009012260   F   F   F
  0.4156116010889527  0.9146305445246108  0.4766967397378673   T   T   T
  0.3333333333333357  0.0833333333333357  0.3817991009012260   F   F   F
  0.4924613468263180  0.4920973637649127  0.5650548381225851   T   T   T
  0.4993134785673954  0.2427947621859226  0.5737124797169598   T   T   T
  0.4155237417811576  0.4173693407645675  0.4725457958681287   T   T   T
  0.5043592031207571 -0.0026147978787163  0.5671093311219200   T   T   T
  0.1638224544256852  0.4135694319228183  0.4738661360897081   T   T   T
  0.4132178238380981  0.1664952909577770  0.4781316593608205   T   T   T
  0.5833333333333357  0.0833333333333357  0.3817991009012260   F   F   F
  0.2083557489125150  0.7794832815097513  0.6007170818379967   T   T   T
  0.1673441722413610  0.6658100464574659  0.4746403047708283   T   T   T
  0.2107842874802496  0.4352279605134658  0.6723706807705022   T   T   T
  0.3137523778514321  0.5637609299859910  0.6135090188979024   T   T   T
  0.4259681572698359  0.0390617130206429  0.6426644657478477   T   T   T
  0.1557391636118363  0.2142742521369679  0.6355600443384978   T   T   T
  0.8453066109985196  0.8485342352316587  0.6097676184429024   T   T   T
  0.3690015741088326  0.8107792446821541  0.6257950870354410   T   T   T
  0.8347204088251871  0.5947981567399340  0.6156272207224339   T   T   T
  0.6043530056930521  0.5688471818908211  0.6059267595090811   T   T   T
  0.2600619742498991  0.0103111468531730  0.6243994311675005   T   T   T
  0.0833333333333357  0.0833333333333357  0.3817991009012260   F   F   F
  0.5833333333333357  0.3333333333333357  0.3817991009012260   F   F   F
  0.3333333333333357  0.3333333333333357  0.3817991009012260   F   F   F
  0.3213562423460130  0.2463234634396473  0.6509643838774165   T   T   T
  0.7592744087330147  0.7545894468475319  0.5663625137212338   T   T   T
  0.3333333333333357  0.5833333333333357  0.3817991009012260   F   F   F
  0.2329893380423181  0.4827729426775037  0.5643628436412271   T   T   T
  0.1674064909701011  0.1617707453108986  0.4723254540452528   T   T   T
  0.0102756262125124  0.7500454326090477  0.5624897191798400   T   T   T
  0.5833333333333357  0.8333333333333357  0.3817991009012260   F   F   F
  0.5057465886819340  0.7498878666182920  0.5665282475718412   T   T   T
  0.9195355737604330  0.9149394334112961  0.4726068080705011   T   T   T
  0.0833333333333357  0.8333333333333357  0.3817991009012260   F   F   F
  0.7647100050073772  0.0090233888950305  0.5627479484921738   T   T   T
  0.6663289554333386  0.4187492987837159  0.4785126402741737   T   T   T
  0.9175081838566396  0.6670066846679507  0.4744889758316688   T   T   T
  0.0833333333333357  0.5833333333333357  0.3817991009012260   F   F   F
  0.7825046999095837  0.4830960545086024  0.5664175839936150   T   T   T
  0.0833333333333357  0.3333333333333357  0.3817991009012260   F   F   F
  0.6673705777484268  0.9159288257742452  0.4768258462987227   T   T   T
  0.3333333333333357  0.8333333333333357  0.3817991009012260   F   F   F
  0.5833333333333357  0.5833333333333357  0.3817991009012260   F   F   F
  0.4180409027484215  0.6657734557617740  0.4712815325621967   T   T   T
 
  0.00000000E+00  0.00000000E+00  0.00000000E+00
  0.00000000E+00  0.00000000E+00  0.00000000E+00
  0.00000000E+00  0.00000000E+00  0.00000000E+00
  0.00000000E+00  0.00000000E+00  0.00000000E+00
  0.00000000E+00  0.00000000E+00  0.00000000E+00
  0.00000000E+00  0.00000000E+00  0.00000000E+00
  0.00000000E+00  0.00000000E+00  0.00000000E+00
  0.00000000E+00  0.00000000E+00  0.00000000E+00
  0.00000000E+00  0.00000000E+00  0.00000000E+00
  0.00000000E+00  0.00000000E+00  0.00000000E+00
  0.00000000E+00  0.00000000E+00  0.00000000E+00
  0.00000000E+00  0.00000000E+00  0.00000000E+00
  0.00000000E+00  0.00000000E+00  0.00000000E+00
  0.00000000E+00  0.00000000E+00  0.00000000E+00
  0.00000000E+00  0.00000000E+00  0.00000000E+00
  0.00000000E+00  0.00000000E+00  0.00000000E+00
  0.00000000E+00  0.00000000E+00  0.00000000E+00
  0.00000000E+00  0.00000000E+00  0.00000000E+00
  0.00000000E+00  0.00000000E+00  0.00000000E+00
  0.00000000E+00  0.00000000E+00  0.00000000E+00
  0.00000000E+00  0.00000000E+00  0.00000000E+00
  0.00000000E+00  0.00000000E+00  0.00000000E+00
  0.00000000E+00  0.00000000E+00  0.00000000E+00
  0.00000000E+00  0.00000000E+00  0.00000000E+00
  0.00000000E+00  0.00000000E+00  0.00000000E+00
  0.00000000E+00  0.00000000E+00  0.00000000E+00
  0.00000000E+00  0.00000000E+00  0.00000000E+00
  0.00000000E+00  0.00000000E+00  0.00000000E+00
  0.00000000E+00  0.00000000E+00  0.00000000E+00
  0.00000000E+00  0.00000000E+00  0.00000000E+00
  0.00000000E+00  0.00000000E+00  0.00000000E+00
  0.00000000E+00  0.00000000E+00  0.00000000E+00
  0.00000000E+00  0.00000000E+00  0.00000000E+00
  0.00000000E+00  0.00000000E+00  0.00000000E+00
  0.00000000E+00  0.00000000E+00  0.00000000E+00
  0.00000000E+00  0.00000000E+00  0.00000000E+00
  0.00000000E+00  0.00000000E+00  0.00000000E+00
  0.00000000E+00  0.00000000E+00  0.00000000E+00
  0.00000000E+00  0.00000000E+00  0.00000000E+00
  0.00000000E+00  0.00000000E+00  0.00000000E+00
  0.00000000E+00  0.00000000E+00  0.00000000E+00
  0.00000000E+00  0.00000000E+00  0.00000000E+00
  0.00000000E+00  0.00000000E+00  0.00000000E+00
  0.00000000E+00  0.00000000E+00  0.00000000E+00
  0.00000000E+00  0.00000000E+00  0.00000000E+00
  0.00000000E+00  0.00000000E+00  0.00000000E+00
  0.00000000E+00  0.00000000E+00  0.00000000E+00
  0.00000000E+00  0.00000000E+00  0.00000000E+00
  0.00000000E+00  0.00000000E+00  0.00000000E+00
  0.00000000E+00  0.00000000E+00  0.00000000E+00
  0.00000000E+00  0.00000000E+00  0.00000000E+00
  0.00000000E+00  0.00000000E+00  0.00000000E+00
  0.00000000E+00  0.00000000E+00  0.00000000E+00
  0.00000000E+00  0.00000000E+00  0.00000000E+00
  0.00000000E+00  0.00000000E+00  0.00000000E+00
  0.00000000E+00  0.00000000E+00  0.00000000E+00
