Au  O Pd                                
   1.00000000000000     
    11.0025815152626798    0.0000000000000000    0.0000000000000000
     5.5012907576313399    9.5285150994265617    0.0000000000000000
     0.0000000000000000    0.0000000000000000   26.1917850942952910
   Au   O    Pd
    24     8    24
Selective dynamics
Direct
  0.9161679582393629  0.9139401277149091  0.4760285722497952   T   T   T
  0.0833333333333357  0.8333333333333357  0.3817991009012260   F   F   F
  0.6681091190592573  0.9130589197785967  0.4744059627717522   T   T   T
  0.7839434397015017  0.4415663736273376  0.6352964765214071   T   T   T
  0.0833333333333357  0.3333333333333357  0.3817991009012260   F   F   F
  0.9132238755078514  0.4196847673564337  0.4766523195092475   T   T   T
  0.8333333333333357  0.5833333333333357  0.3817991009012260   F   F   F
  0.7512319934975311  0.2532819852426667  0.5682955783111123   T   T   T
  0.6662404128445949  0.4151403141249250  0.4758901924386837   T   T   T
  0.7454295263603867  0.0103112763671052  0.5723981745482510   T   T   T
  0.8333333333333357  0.0833333333333357  0.3817991009012260   F   F   F
  0.7430942010145488  0.7518261583401161  0.5640884177952199   T   T   T
  0.4992457172378933  0.7579682372709037  0.5673197401774754   T   T   T
  0.0127668813452132  0.7234626643978600  0.5975705034569725   T   T   T
  0.4105201258058340  0.9188131657829954  0.4721553803415537   T   T   T
  0.5833333333333357  0.8333333333333357  0.3817991009012260   F   F   F
  0.4948422631945202  0.5045255384283563  0.5663446744251496   T   T   T
  0.4075580552175537  0.6692525237039515  0.4749574149757596   T   T   T
  0.5833333333333357  0.5833333333333357  0.3817991009012260   F   F   F
  0.4981411278525094  0.2556676792396430  0.5673034516598411   T   T   T
  0.5833333333333357  0.3333333333333357  0.3817991009012260   F   F   F
  0.4932239667025387  0.0084232033013901  0.5660491754032739   T   T   T
  0.4072560074848707  0.1742908605829420  0.4736475727016685   T   T   T
  0.5833333333333357  0.0833333333333357  0.3817991009012260   F   F   F
  0.0735347871419356  0.3268317238935337  0.6133897670344338   T   T   T
  0.0702607862365864  0.8695339890914493  0.6191356739306446   T   T   T
  0.3125573003882601  0.3658888422664878  0.6121789819678010   T   T   T
  0.8137268108865586  0.8504684037082505  0.6256597346119563   T   T   T
  0.3156310656628090  0.8705265019761608  0.6149615113160865   T   T   T
  0.8378426906275954  0.5852878613525861  0.6252833486018237   T   T   T
  0.7491595009231431  0.2859269413538928  0.6456783154489889   T   T   T
  0.5760236946799475  0.5839296404345788  0.6232686589502799   T   T   T
  0.3333333333333357  0.0833333333333357  0.3817991009012260   F   F   F
  0.4120353691376014  0.4197435088816964  0.4725632261185184   T   T   T
  0.2459926444006731  0.2524911943242693  0.5704014431421836   T   T   T
  0.2396794188394636  0.5135073771268163  0.5589775966750447   T   T   T
  0.1613708078308932  0.4204923405426891  0.4734379636661248   T   T   T
  0.3333333333333357  0.3333333333333357  0.3817991009012260   F   F   F
  0.2521412208794102  0.7438103507803191  0.5851055499598135   T   T   T
  0.2394944526611823  0.0108415537481998  0.5598960753593167   T   T   T
  0.1602172807220203  0.1690902746661759  0.4738861123807556   T   T   T
  0.0833333333333357  0.0833333333333357  0.3817991009012260   F   F   F
  0.3333333333333357  0.8333333333333357  0.3817991009012260   F   F   F
 -0.0100665926058229  0.5075396561374897  0.5712383586064345   T   T   T
  0.6641250526116642  0.1660927308159096  0.4797247298146557   T   T   T
  0.9190959908492465  0.6645588320690589  0.4762765187909923   T   T   T
  0.8333333333333357  0.3333333333333357  0.3817991009012260   F   F   F
  0.0833333333333357  0.5833333333333357  0.3817991009012260   F   F   F
 -0.0064019744292931  0.2513741555344099  0.5636487197818982   T   T   T
  0.6634662694908149  0.6655714878578126  0.4778988158725708   T   T   T
 -0.0006409741639853  0.0022464315331108  0.5610842779388928   T   T   T
  0.8333333333333357  0.8333333333333357  0.3817991009012260   F   F   F
  0.9150495223655187  0.1663572058747462  0.4761283600378919   T   T   T
  0.1622199564847235  0.9170739339315516  0.4717298691023708   T   T   T
  0.3333333333333357  0.5833333333333357  0.3817991009012260   F   F   F
  0.1619995727423785  0.6675309302758294  0.4762813164649458   T   T   T
 
  0.00000000E+00  0.00000000E+00  0.00000000E+00
  0.00000000E+00  0.00000000E+00  0.00000000E+00
  0.00000000E+00  0.00000000E+00  0.00000000E+00
  0.00000000E+00  0.00000000E+00  0.00000000E+00
  0.00000000E+00  0.00000000E+00  0.00000000E+00
  0.00000000E+00  0.00000000E+00  0.00000000E+00
  0.00000000E+00  0.00000000E+00  0.00000000E+00
  0.00000000E+00  0.00000000E+00  0.00000000E+00
  0.00000000E+00  0.00000000E+00  0.00000000E+00
  0.00000000E+00  0.00000000E+00  0.00000000E+00
  0.00000000E+00  0.00000000E+00  0.00000000E+00
  0.00000000E+00  0.00000000E+00  0.00000000E+00
  0.00000000E+00  0.00000000E+00  0.00000000E+00
  0.00000000E+00  0.00000000E+00  0.00000000E+00
  0.00000000E+00  0.00000000E+00  0.00000000E+00
  0.00000000E+00  0.00000000E+00  0.00000000E+00
  0.00000000E+00  0.00000000E+00  0.00000000E+00
  0.00000000E+00  0.00000000E+00  0.00000000E+00
  0.00000000E+00  0.00000000E+00  0.00000000E+00
  0.00000000E+00  0.00000000E+00  0.00000000E+00
  0.00000000E+00  0.00000000E+00  0.00000000E+00
  0.00000000E+00  0.00000000E+00  0.00000000E+00
  0.00000000E+00  0.00000000E+00  0.00000000E+00
  0.00000000E+00  0.00000000E+00  0.00000000E+00
  0.00000000E+00  0.00000000E+00  0.00000000E+00
  0.00000000E+00  0.00000000E+00  0.00000000E+00
  0.00000000E+00  0.00000000E+00  0.00000000E+00
  0.00000000E+00  0.00000000E+00  0.00000000E+00
  0.00000000E+00  0.00000000E+00  0.00000000E+00
  0.00000000E+00  0.00000000E+00  0.00000000E+00
  0.00000000E+00  0.00000000E+00  0.00000000E+00
  0.00000000E+00  0.00000000E+00  0.00000000E+00
  0.00000000E+00  0.00000000E+00  0.00000000E+00
  0.00000000E+00  0.00000000E+00  0.00000000E+00
  0.00000000E+00  0.00000000E+00  0.00000000E+00
  0.00000000E+00  0.00000000E+00  0.00000000E+00
  0.00000000E+00  0.00000000E+00  0.00000000E+00
  0.00000000E+00  0.00000000E+00  0.00000000E+00
  0.00000000E+00  0.00000000E+00  0.00000000E+00
  0.00000000E+00  0.00000000E+00  0.00000000E+00
  0.00000000E+00  0.00000000E+00  0.00000000E+00
  0.00000000E+00  0.00000000E+00  0.00000000E+00
  0.00000000E+00  0.00000000E+00  0.00000000E+00
  0.00000000E+00  0.00000000E+00  0.00000000E+00
  0.00000000E+00  0.00000000E+00  0.00000000E+00
  0.00000000E+00  0.00000000E+00  0.00000000E+00
  0.00000000E+00  0.00000000E+00  0.00000000E+00
  0.00000000E+00  0.00000000E+00  0.00000000E+00
  0.00000000E+00  0.00000000E+00  0.00000000E+00
  0.00000000E+00  0.00000000E+00  0.00000000E+00
  0.00000000E+00  0.00000000E+00  0.00000000E+00
  0.00000000E+00  0.00000000E+00  0.00000000E+00
  0.00000000E+00  0.00000000E+00  0.00000000E+00
  0.00000000E+00  0.00000000E+00  0.00000000E+00
  0.00000000E+00  0.00000000E+00  0.00000000E+00
  0.00000000E+00  0.00000000E+00  0.00000000E+00
