Au  O Pd                                
   1.00000000000000     
    11.0025815152626798    0.0000000000000000    0.0000000000000000
     5.5012907576313399    9.5285150994265617    0.0000000000000000
     0.0000000000000000    0.0000000000000000   26.1917850942952910
   Au   O    Pd
    24     8    24
Selective dynamics
Direct
  0.9167972698364582  0.9124176508056443  0.4761518808848890   T   T   T
  0.0833333333333357  0.8333333333333357  0.3817991009012260   F   F   F
  0.6715463975362310  0.9071983050439042  0.4755101323876586   T   T   T
  0.7747976075915971  0.4564577962398834  0.6028674586979833   T   T   T
  0.0833333333333357  0.3333333333333357  0.3817991009012260   F   F   F
  0.9158833489185267  0.4159985069119276  0.4757953995513662   T   T   T
  0.8333333333333357  0.5833333333333357  0.3817991009012260   F   F   F
  0.7570687460785038  0.2472596026711696  0.5664792474457225   T   T   T
  0.6643171712315054  0.4146550526576280  0.4762092933622223   T   T   T
  0.7498308977288283  0.0081497464686781  0.5724611299997078   T   T   T
  0.8333333333333357  0.0833333333333357  0.3817991009012260   F   F   F
  0.7466630902533933  0.7489031042083536  0.5673739332192127   T   T   T
  0.5030469146018799  0.7583123336159544  0.5731443482885359   T   T   T
  0.0114194093442191  0.7283007556292603  0.5837383715661097   T   T   T
  0.4169680988578113  0.9117787764598670  0.4715780519300973   T   T   T
  0.5833333333333357  0.8333333333333357  0.3817991009012260   F   F   F
  0.4889642526981220  0.5109565201091234  0.5736508204015438   T   T   T
  0.4095626672259073  0.6660645219223713  0.4800703741962011   T   T   T
  0.5833333333333357  0.5833333333333357  0.3817991009012260   F   F   F
  0.5020855876067907  0.2441096495840326  0.5760188707698903   T   T   T
  0.5833333333333357  0.3333333333333357  0.3817991009012260   F   F   F
  0.5011195609335298 -0.0004303061885511  0.5644581556052153   T   T   T
  0.4112246692659536  0.1719843011038477  0.4768605242843409   T   T   T
  0.5833333333333357  0.0833333333333357  0.3817991009012260   F   F   F
  0.0827753107300334  0.3151027941354689  0.6117239627374912   T   T   T
  0.0705713996376127  0.8638007634176798  0.6156177580843046   T   T   T
  0.3094227743408566  0.3667145871946744  0.6147759757662631   T   T   T
  0.8251530348596906  0.8424773377741240  0.6240392279810162   T   T   T
  0.3112513878861371  0.8709067682898252  0.6140305804914038   T   T   T
  0.8541027501258757  0.5771472330295326  0.6269224663932620   T   T   T
  0.6115093946915789  0.3175623728147621  0.6241841361863895   T   T   T
  0.5788650865858925  0.5944781834793256  0.6298838533802855   T   T   T
  0.3333333333333357  0.0833333333333357  0.3817991009012260   F   F   F
  0.4145450956867647  0.4173224538999821  0.4732122975137610   T   T   T
  0.2552992380644585  0.2428940021101852  0.5726820822974142   T   T   T
  0.2499074964384097  0.5040310418226883  0.5591415331410210   T   T   T
  0.1650492022774628  0.4168114322814142  0.4741586293932235   T   T   T
  0.3333333333333357  0.3333333333333357  0.3817991009012260   F   F   F
  0.2503962787403786  0.7476150034785952  0.5791025660308119   T   T   T
  0.2460821540024599  0.0063357754739410  0.5569810003395312   T   T   T
  0.1647185532994219  0.1654402072404321  0.4720009404282653   T   T   T
  0.0833333333333357  0.0833333333333357  0.3817991009012260   F   F   F
  0.3333333333333357  0.8333333333333357  0.3817991009012260   F   F   F
  0.0033448622631186  0.4995456115984099  0.5706671002419368   T   T   T
  0.6643400593423984  0.1625875215739790  0.4800099577066483   T   T   T
  0.9201163007352783  0.6616533999010433  0.4779828619218315   T   T   T
  0.8333333333333357  0.3333333333333357  0.3817991009012260   F   F   F
  0.0833333333333357  0.5833333333333357  0.3817991009012260   F   F   F
 -0.0017231907954079  0.2494213064118844  0.5610921091766232   T   T   T
  0.6674165133985844  0.6589126791926645  0.4836517957431279   T   T   T
  0.0000688760876081  0.0034742038909737  0.5608160115113286   T   T   T
  0.8333333333333357  0.8333333333333357  0.3817991009012260   F   F   F
  0.9133201145598503  0.1669209585415267  0.4756204203347900   T   T   T
  0.1641483153731200  0.9153362237558824  0.4707278663604764   T   T   T
  0.3333333333333357  0.5833333333333357  0.3817991009012260   F   F   F
  0.1629119847050693  0.6668433235967171  0.4776454639394672   T   T   T
 
  0.00000000E+00  0.00000000E+00  0.00000000E+00
  0.00000000E+00  0.00000000E+00  0.00000000E+00
  0.00000000E+00  0.00000000E+00  0.00000000E+00
  0.00000000E+00  0.00000000E+00  0.00000000E+00
  0.00000000E+00  0.00000000E+00  0.00000000E+00
  0.00000000E+00  0.00000000E+00  0.00000000E+00
  0.00000000E+00  0.00000000E+00  0.00000000E+00
  0.00000000E+00  0.00000000E+00  0.00000000E+00
  0.00000000E+00  0.00000000E+00  0.00000000E+00
  0.00000000E+00  0.00000000E+00  0.00000000E+00
  0.00000000E+00  0.00000000E+00  0.00000000E+00
  0.00000000E+00  0.00000000E+00  0.00000000E+00
  0.00000000E+00  0.00000000E+00  0.00000000E+00
  0.00000000E+00  0.00000000E+00  0.00000000E+00
  0.00000000E+00  0.00000000E+00  0.00000000E+00
  0.00000000E+00  0.00000000E+00  0.00000000E+00
  0.00000000E+00  0.00000000E+00  0.00000000E+00
  0.00000000E+00  0.00000000E+00  0.00000000E+00
  0.00000000E+00  0.00000000E+00  0.00000000E+00
  0.00000000E+00  0.00000000E+00  0.00000000E+00
  0.00000000E+00  0.00000000E+00  0.00000000E+00
  0.00000000E+00  0.00000000E+00  0.00000000E+00
  0.00000000E+00  0.00000000E+00  0.00000000E+00
  0.00000000E+00  0.00000000E+00  0.00000000E+00
  0.00000000E+00  0.00000000E+00  0.00000000E+00
  0.00000000E+00  0.00000000E+00  0.00000000E+00
  0.00000000E+00  0.00000000E+00  0.00000000E+00
  0.00000000E+00  0.00000000E+00  0.00000000E+00
  0.00000000E+00  0.00000000E+00  0.00000000E+00
  0.00000000E+00  0.00000000E+00  0.00000000E+00
  0.00000000E+00  0.00000000E+00  0.00000000E+00
  0.00000000E+00  0.00000000E+00  0.00000000E+00
  0.00000000E+00  0.00000000E+00  0.00000000E+00
  0.00000000E+00  0.00000000E+00  0.00000000E+00
  0.00000000E+00  0.00000000E+00  0.00000000E+00
  0.00000000E+00  0.00000000E+00  0.00000000E+00
  0.00000000E+00  0.00000000E+00  0.00000000E+00
  0.00000000E+00  0.00000000E+00  0.00000000E+00
  0.00000000E+00  0.00000000E+00  0.00000000E+00
  0.00000000E+00  0.00000000E+00  0.00000000E+00
  0.00000000E+00  0.00000000E+00  0.00000000E+00
  0.00000000E+00  0.00000000E+00  0.00000000E+00
  0.00000000E+00  0.00000000E+00  0.00000000E+00
  0.00000000E+00  0.00000000E+00  0.00000000E+00
  0.00000000E+00  0.00000000E+00  0.00000000E+00
  0.00000000E+00  0.00000000E+00  0.00000000E+00
  0.00000000E+00  0.00000000E+00  0.00000000E+00
  0.00000000E+00  0.00000000E+00  0.00000000E+00
  0.00000000E+00  0.00000000E+00  0.00000000E+00
  0.00000000E+00  0.00000000E+00  0.00000000E+00
  0.00000000E+00  0.00000000E+00  0.00000000E+00
  0.00000000E+00  0.00000000E+00  0.00000000E+00
  0.00000000E+00  0.00000000E+00  0.00000000E+00
  0.00000000E+00  0.00000000E+00  0.00000000E+00
  0.00000000E+00  0.00000000E+00  0.00000000E+00
  0.00000000E+00  0.00000000E+00  0.00000000E+00
