Au Pd                                   
   1.00000000000000     
    11.0025815152626798    0.0000000000000000    0.0000000000000000
     5.5012907576313399    9.5285150994265617    0.0000000000000000
     0.0000000000000000    0.0000000000000000   24.4917850942952882
   Au   Pd
    24    24
Direct
  0.7514604394487066  0.7517789241760583  0.6036002643655464
  0.5827594500697879  0.5860165227408828  0.3929026003126638
  0.4178740395974839  0.6644977012039197  0.5008252775157132
  0.4954252965449675  0.4992637755905575  0.6050680695397441
  0.1666685485572207  0.9175323283802517  0.5014658753501939
  0.5864096182586185  0.8345377276309571  0.3966755569162795
  0.4175015982960033  0.9187736807786676  0.5008286491558182
  0.1667206052557584  0.6633180844915664  0.4998611007069243
  0.4984400252576517  0.7516070493180502  0.6080873330413793
  0.8345565497734407  0.0821053501326803  0.3938794117872401
  0.6638008454252670  0.1657389541591373  0.4994665070406777
  0.3313516602036835  0.3362131727969648  0.3975821109586308
  0.2483518245548109  0.0037876033778883  0.6061404442467683
  0.5828135539074260  0.3345795006471671  0.3949353748571084
  0.3312578658895991  0.0851776581061205  0.3972386611373562
  0.8371160579711645  0.3349914914225030  0.3943251853909938
  0.9149477945024407  0.9144336304323299  0.4998437716902936
  0.0861638227332724  0.8316073553432596  0.3949269874752439
  0.6678170898876619  0.4154216257868139  0.5003443878933439
  0.7480390735109970  0.2484949487747444  0.6065400605010377
  0.6706081214554382  0.6647102516670812  0.5009002730410786
  0.7528521182193353  0.4982224278559411  0.6060143008450010
 -0.0008456464163328 -0.0019363124581199  0.6064307978742417
  0.9178426262136843  0.1677273189412307  0.5001993177767821
  0.8359101054246383  0.5844041417720817  0.4040292910698299
  0.8348799986186323  0.8325763554327386  0.4027764092344409
  0.4966292100810264  0.2495924220749248  0.5953500817566050
  0.7478748898908726  0.0001771868148977  0.5967410296282860
  0.0841826679591299  0.0840478702558344  0.4033398965680601
  0.4986580754183928  0.0024165566539669  0.5962374908955070
  0.0826059826490681  0.3353501317296818  0.4043636715087935
  0.9196180698392102  0.4152334509696706  0.5003629215887693
 -0.0004622312066152  0.2505788887736378  0.5974162221372531
  0.0818804408796219  0.5838199957681639  0.4039428791613318
  0.9173067250862991  0.6639142945738723  0.5012189833345544
  0.0018656487382811  0.4977979212932095  0.5957242746859372
  0.0004892480498063  0.7481660811886315  0.5973751342173989
  0.4163554770376098  0.4149223088309911  0.4990581765563629
  0.1675927032378915  0.1673643460990713  0.5004140818653455
  0.2490388740880504  0.2518016995541500  0.5941292188152122
  0.3333434583565328  0.5844188166424416  0.4021751011753606
  0.2474709822221185  0.4995353605309801  0.5957410358434787
  0.3340556257039965  0.8342776896794585  0.4032865565828358
  0.6665230929513485  0.9150142360772231  0.4996474802074264
  0.5839802866349124  0.0838852749778967  0.4022904945327218
  0.4140414863498525  0.1684803451484150  0.4980876928501478
  0.1675529636908183  0.4139545258548086  0.4991423821809229
  0.2486732391804187  0.7496693280065996  0.5990671741833572
 
  0.00000000E+00  0.00000000E+00  0.00000000E+00
  0.00000000E+00  0.00000000E+00  0.00000000E+00
  0.00000000E+00  0.00000000E+00  0.00000000E+00
  0.00000000E+00  0.00000000E+00  0.00000000E+00
  0.00000000E+00  0.00000000E+00  0.00000000E+00
  0.00000000E+00  0.00000000E+00  0.00000000E+00
  0.00000000E+00  0.00000000E+00  0.00000000E+00
  0.00000000E+00  0.00000000E+00  0.00000000E+00
  0.00000000E+00  0.00000000E+00  0.00000000E+00
  0.00000000E+00  0.00000000E+00  0.00000000E+00
  0.00000000E+00  0.00000000E+00  0.00000000E+00
  0.00000000E+00  0.00000000E+00  0.00000000E+00
  0.00000000E+00  0.00000000E+00  0.00000000E+00
  0.00000000E+00  0.00000000E+00  0.00000000E+00
  0.00000000E+00  0.00000000E+00  0.00000000E+00
  0.00000000E+00  0.00000000E+00  0.00000000E+00
  0.00000000E+00  0.00000000E+00  0.00000000E+00
  0.00000000E+00  0.00000000E+00  0.00000000E+00
  0.00000000E+00  0.00000000E+00  0.00000000E+00
  0.00000000E+00  0.00000000E+00  0.00000000E+00
  0.00000000E+00  0.00000000E+00  0.00000000E+00
  0.00000000E+00  0.00000000E+00  0.00000000E+00
  0.00000000E+00  0.00000000E+00  0.00000000E+00
  0.00000000E+00  0.00000000E+00  0.00000000E+00
  0.00000000E+00  0.00000000E+00  0.00000000E+00
  0.00000000E+00  0.00000000E+00  0.00000000E+00
  0.00000000E+00  0.00000000E+00  0.00000000E+00
  0.00000000E+00  0.00000000E+00  0.00000000E+00
  0.00000000E+00  0.00000000E+00  0.00000000E+00
  0.00000000E+00  0.00000000E+00  0.00000000E+00
  0.00000000E+00  0.00000000E+00  0.00000000E+00
  0.00000000E+00  0.00000000E+00  0.00000000E+00
  0.00000000E+00  0.00000000E+00  0.00000000E+00
  0.00000000E+00  0.00000000E+00  0.00000000E+00
  0.00000000E+00  0.00000000E+00  0.00000000E+00
  0.00000000E+00  0.00000000E+00  0.00000000E+00
  0.00000000E+00  0.00000000E+00  0.00000000E+00
  0.00000000E+00  0.00000000E+00  0.00000000E+00
  0.00000000E+00  0.00000000E+00  0.00000000E+00
  0.00000000E+00  0.00000000E+00  0.00000000E+00
  0.00000000E+00  0.00000000E+00  0.00000000E+00
  0.00000000E+00  0.00000000E+00  0.00000000E+00
  0.00000000E+00  0.00000000E+00  0.00000000E+00
  0.00000000E+00  0.00000000E+00  0.00000000E+00
  0.00000000E+00  0.00000000E+00  0.00000000E+00
  0.00000000E+00  0.00000000E+00  0.00000000E+00
  0.00000000E+00  0.00000000E+00  0.00000000E+00
  0.00000000E+00  0.00000000E+00  0.00000000E+00
