Au  O Pd                                
   1.00000000000000     
    11.0025815152626798    0.0000000000000000    0.0000000000000000
     5.5012907576313399    9.5285150994265617    0.0000000000000000
     0.0000000000000000    0.0000000000000000   26.1917850942952910
   Au   O    Pd
    24     8    24
Selective dynamics
Direct
  0.5199588653318925  0.7358534568908910  0.5626327075346441   T   T   T
  0.7613775546713908  0.7384031730407126  0.6114029992878750   T   T   T
  0.6703463922137445  0.9090915380156699  0.4777877594510168   T   T   T
  0.8333333333333357  0.8333333333333357  0.3817991009012260   F   F   F
  0.0833333333333357  0.3333333333333357  0.3817991009012260   F   F   F
  0.9196197281278866  0.4150840328127796  0.4784485623736326   T   T   T
  0.8333333333333357  0.5833333333333357  0.3817991009012260   F   F   F
  0.0833333333333357  0.5833333333333357  0.3817991009012260   F   F   F
  0.9064168828334216  0.6746279139787320  0.5152548883961365   T   T   T
  0.7594698696691352  0.2124569389609231  0.5586298857966766   T   T   T
  0.0833333333333357  0.8333333333333357  0.3817991009012260   F   F   F
  0.4222870483299514  0.9057438014484792  0.4730910591389960   T   T   T
  0.1707624439433997  0.9079601226305810  0.4748979171272548   T   T   T
  0.4117725819390858  0.4158887972586112  0.4777352267272981   T   T   T
  0.1684980643167301  0.1610657151984126  0.4732991481816659   T   T   T
  0.2288714090524390  0.9929382827562281  0.6079775237734787   T   T   T
  0.5833333333333357  0.3333333333333357  0.3817991009012260   F   F   F
  0.3333333333333357  0.3333333333333357  0.3817991009012260   F   F   F
  0.5368008259920974  0.0070810924443648  0.6207534652654143   T   T   T
  0.2678724893903542  0.2170717013331496  0.5642828726943349   T   T   T
  0.4186745480600851  0.1604780289949281  0.4711947443792404   T   T   T
  0.3333333333333357  0.5833333333333357  0.3817991009012260   F   F   F
  0.1642160989318207  0.6722916572417599  0.5099734185765726   T   T   T
  0.5833333333333357  0.5833333333333357  0.3817991009012260   F   F   F
  0.3913570936236282  0.5251207654371357  0.6221778589304380   T   T   T
  0.1210907618505763  0.5199009926228650  0.6318720212014083   T   T   T
  0.3239634154500812  0.1139638321459742  0.6354757236704842   T   T   T
  0.9222857344971601  0.9243410042013702  0.6192578110521400   T   T   T
  0.3901541605819249  0.7971880663164423  0.6289467448570539   T   T   T
  0.8455857251444588  0.5279466742941686  0.6272674432597827   T   T   T
  0.8563898054380366  0.2851850380588599  0.6099543432569047   T   T   T
  0.6264211454227004  0.8452877061213225  0.6684452531858313   T   T   T
  0.5833333333333357  0.8333333333333357  0.3817991009012260   F   F   F
  0.3333333333333357  0.0833333333333357  0.3817991009012260   F   F   F
  0.5165864037200953  0.2098383784413549  0.5600757456296424   T   T   T
  0.2812030264952731  0.4572554083775432  0.5831291230402276   T   T   T
  0.2655167033951423  0.7266484508558346  0.6048177694207002   T   T   T
  0.4164614137974124  0.6600311560620684  0.4752263144043847   T   T   T
  0.5176686279939776  0.4758573246170461  0.5622591186840368   T   T   T
  0.0833333333333357  0.0833333333333357  0.3817991009012260   F   F   F
  0.9211930430959323  0.9042470054718169  0.4725853277334846   T   T   T
  0.0231985462496575  0.7208823601575858  0.6192907590268951   T   T   T
  0.3333333333333357  0.8333333333333357  0.3817991009012260   F   F   F
  0.8333333333333357  0.0833333333333357  0.3817991009012260   F   F   F
  0.6717502031223077  0.1573702086251675  0.4710950672109284   T   T   T
  0.7734537535953582  0.9578600885407678  0.5674148337561703   T   T   T
  0.8333333333333357  0.3333333333333357  0.3817991009012260   F   F   F
  0.6715244908854124  0.4109956963973380  0.4754907334487493   T   T   T
  0.0200613177356361  0.4566019658657323  0.5849395471775126   T   T   T
  0.0195583629550755  0.2113793440478138  0.5630688801126643   T   T   T
  0.6741400040011969  0.6587367460410543  0.4782034180540801   T   T   T
  0.7590621288934841  0.4731252789839579  0.5698869914545021   T   T   T
  0.0284089684622093  0.9512690014750524  0.5626595216353213   T   T   T
  0.9217462586129513  0.1569718046917231  0.4695755140457634   T   T   T
  0.5833333333333357  0.0833333333333357  0.3817991009012260   F   F   F
  0.1615158864892157  0.4227536315132678  0.4876361047017475   T   T   T
 
  0.00000000E+00  0.00000000E+00  0.00000000E+00
  0.00000000E+00  0.00000000E+00  0.00000000E+00
  0.00000000E+00  0.00000000E+00  0.00000000E+00
  0.00000000E+00  0.00000000E+00  0.00000000E+00
  0.00000000E+00  0.00000000E+00  0.00000000E+00
  0.00000000E+00  0.00000000E+00  0.00000000E+00
  0.00000000E+00  0.00000000E+00  0.00000000E+00
  0.00000000E+00  0.00000000E+00  0.00000000E+00
  0.00000000E+00  0.00000000E+00  0.00000000E+00
  0.00000000E+00  0.00000000E+00  0.00000000E+00
  0.00000000E+00  0.00000000E+00  0.00000000E+00
  0.00000000E+00  0.00000000E+00  0.00000000E+00
  0.00000000E+00  0.00000000E+00  0.00000000E+00
  0.00000000E+00  0.00000000E+00  0.00000000E+00
  0.00000000E+00  0.00000000E+00  0.00000000E+00
  0.00000000E+00  0.00000000E+00  0.00000000E+00
  0.00000000E+00  0.00000000E+00  0.00000000E+00
  0.00000000E+00  0.00000000E+00  0.00000000E+00
  0.00000000E+00  0.00000000E+00  0.00000000E+00
  0.00000000E+00  0.00000000E+00  0.00000000E+00
  0.00000000E+00  0.00000000E+00  0.00000000E+00
  0.00000000E+00  0.00000000E+00  0.00000000E+00
  0.00000000E+00  0.00000000E+00  0.00000000E+00
  0.00000000E+00  0.00000000E+00  0.00000000E+00
  0.00000000E+00  0.00000000E+00  0.00000000E+00
  0.00000000E+00  0.00000000E+00  0.00000000E+00
  0.00000000E+00  0.00000000E+00  0.00000000E+00
  0.00000000E+00  0.00000000E+00  0.00000000E+00
  0.00000000E+00  0.00000000E+00  0.00000000E+00
  0.00000000E+00  0.00000000E+00  0.00000000E+00
  0.00000000E+00  0.00000000E+00  0.00000000E+00
  0.00000000E+00  0.00000000E+00  0.00000000E+00
  0.00000000E+00  0.00000000E+00  0.00000000E+00
  0.00000000E+00  0.00000000E+00  0.00000000E+00
  0.00000000E+00  0.00000000E+00  0.00000000E+00
  0.00000000E+00  0.00000000E+00  0.00000000E+00
  0.00000000E+00  0.00000000E+00  0.00000000E+00
  0.00000000E+00  0.00000000E+00  0.00000000E+00
  0.00000000E+00  0.00000000E+00  0.00000000E+00
  0.00000000E+00  0.00000000E+00  0.00000000E+00
  0.00000000E+00  0.00000000E+00  0.00000000E+00
  0.00000000E+00  0.00000000E+00  0.00000000E+00
  0.00000000E+00  0.00000000E+00  0.00000000E+00
  0.00000000E+00  0.00000000E+00  0.00000000E+00
  0.00000000E+00  0.00000000E+00  0.00000000E+00
  0.00000000E+00  0.00000000E+00  0.00000000E+00
  0.00000000E+00  0.00000000E+00  0.00000000E+00
  0.00000000E+00  0.00000000E+00  0.00000000E+00
  0.00000000E+00  0.00000000E+00  0.00000000E+00
  0.00000000E+00  0.00000000E+00  0.00000000E+00
  0.00000000E+00  0.00000000E+00  0.00000000E+00
  0.00000000E+00  0.00000000E+00  0.00000000E+00
  0.00000000E+00  0.00000000E+00  0.00000000E+00
  0.00000000E+00  0.00000000E+00  0.00000000E+00
  0.00000000E+00  0.00000000E+00  0.00000000E+00
  0.00000000E+00  0.00000000E+00  0.00000000E+00
