Au Pd                                   
   1.00000000000000     
    11.0025815152626798    0.0000000000000000    0.0000000000000000
     5.5012907576313399    9.5285150994265617    0.0000000000000000
     0.0000000000000000    0.0000000000000000   24.4917850942952882
   Au   Pd
    24    24
Direct
  0.2512782398757942  0.7485714603034352  0.6037181986944804
  0.4994832481913060  0.2509373069322763  0.6058461275932040
  0.4191245415938192  0.4165349861795453  0.4994427876252561
  0.5009341256252788 -0.0034738138608531  0.6040919982304490
  0.4155337733535431  0.1655306462758850  0.4987307078790835
  0.6645055597815532  0.9171535208765453  0.4994700806873829
  0.6681382495928420  0.1681389299439600  0.4990102543021974
  0.1670738746837388  0.6689901234437643  0.4997289498748170
  0.2487962719311544  0.2487492802016309  0.6034083856648138
  0.1666161313039832  0.4147803770341116  0.4997281097598342
  0.7500874511106475  0.2503633672805831  0.6020484808607167
  0.3351070808059844  0.0796271163299749  0.3967484046641402
  0.3356623772030204  0.3347409403317065  0.3930537164647301
  0.9182127312585130  0.9184501665769005  0.4992517315157590
  0.0004386224276854  0.0001448277705044  0.6019887237969337
  0.0828515525089805  0.3322534661811037  0.3955508476359941
  0.9169040752423329  0.4123203608533373  0.4991719120404575
  0.7475733597026011  0.5019291567117018  0.6038352242543620
  0.8315084289082391  0.5849681561626711  0.3945290604794040
  0.6647712826220284  0.6663862153862560  0.4993196372741903
  0.4165385944487156  0.6691840464807931  0.4997167150714751
  0.9161122365353396  0.6659675478222049  0.4996664241958233
 -0.0005038762030457  0.5021152442618407  0.6058240980566998
  0.0836648084324372  0.8341066193161527  0.3962570937426859
  0.8317989533051817  0.3327479825547413  0.4023212641718509
  0.4991589684821487  0.7507353712663986  0.5977891382210738
  0.5833757928675113  0.8332680313826180  0.4017479982613748
  0.4140288862551945  0.9190436740786971  0.4995576386992636
  0.6686513031996905  0.4152373626453262  0.5002953732001193
  0.8323497607322730  0.8343987450218834  0.4011913619945404
  0.7503678879462974 -0.0014378658376374  0.5981729023395644
  0.8325181273430627  0.0856749141588179  0.4015901855860473
  0.0823975494270821  0.0829657466211569  0.4037054186341758
  0.5822666354475643  0.5827411091242557  0.4015903483704889
  0.5849728185645233  0.3337178340939540  0.4021291010727095
  0.5858361170091416  0.0823435192240439  0.4008280971209306
  0.1662037361577279  0.9200640470386875  0.5000125722284181
  0.3344774810693616  0.8321379515472672  0.4025314785625426
  0.2493693836721058  0.4999146083006936  0.5981107483467966
  0.3344729990587558  0.5832899742898396  0.4011509450384460
  0.2499982520681736  0.0000857773420584  0.5957222914966832
  0.1671380756153351  0.1642001408510951  0.4987304885037477
 -0.0013124471050146  0.7503227222975818  0.5983749032886263
  0.0833291879511254  0.5837770720674400  0.4011992634300283
  0.0010808722799548  0.2498648042063676  0.5967865460345601
  0.9177396517958265  0.1661095215903321  0.5003484487752603
  0.4992031353612250  0.5000320199533329  0.5980119571848748
  0.7501641305592605  0.7502948873850164  0.5979638590729865
 
  0.00000000E+00  0.00000000E+00  0.00000000E+00
  0.00000000E+00  0.00000000E+00  0.00000000E+00
  0.00000000E+00  0.00000000E+00  0.00000000E+00
  0.00000000E+00  0.00000000E+00  0.00000000E+00
  0.00000000E+00  0.00000000E+00  0.00000000E+00
  0.00000000E+00  0.00000000E+00  0.00000000E+00
  0.00000000E+00  0.00000000E+00  0.00000000E+00
  0.00000000E+00  0.00000000E+00  0.00000000E+00
  0.00000000E+00  0.00000000E+00  0.00000000E+00
  0.00000000E+00  0.00000000E+00  0.00000000E+00
  0.00000000E+00  0.00000000E+00  0.00000000E+00
  0.00000000E+00  0.00000000E+00  0.00000000E+00
  0.00000000E+00  0.00000000E+00  0.00000000E+00
  0.00000000E+00  0.00000000E+00  0.00000000E+00
  0.00000000E+00  0.00000000E+00  0.00000000E+00
  0.00000000E+00  0.00000000E+00  0.00000000E+00
  0.00000000E+00  0.00000000E+00  0.00000000E+00
  0.00000000E+00  0.00000000E+00  0.00000000E+00
  0.00000000E+00  0.00000000E+00  0.00000000E+00
  0.00000000E+00  0.00000000E+00  0.00000000E+00
  0.00000000E+00  0.00000000E+00  0.00000000E+00
  0.00000000E+00  0.00000000E+00  0.00000000E+00
  0.00000000E+00  0.00000000E+00  0.00000000E+00
  0.00000000E+00  0.00000000E+00  0.00000000E+00
  0.00000000E+00  0.00000000E+00  0.00000000E+00
  0.00000000E+00  0.00000000E+00  0.00000000E+00
  0.00000000E+00  0.00000000E+00  0.00000000E+00
  0.00000000E+00  0.00000000E+00  0.00000000E+00
  0.00000000E+00  0.00000000E+00  0.00000000E+00
  0.00000000E+00  0.00000000E+00  0.00000000E+00
  0.00000000E+00  0.00000000E+00  0.00000000E+00
  0.00000000E+00  0.00000000E+00  0.00000000E+00
  0.00000000E+00  0.00000000E+00  0.00000000E+00
  0.00000000E+00  0.00000000E+00  0.00000000E+00
  0.00000000E+00  0.00000000E+00  0.00000000E+00
  0.00000000E+00  0.00000000E+00  0.00000000E+00
  0.00000000E+00  0.00000000E+00  0.00000000E+00
  0.00000000E+00  0.00000000E+00  0.00000000E+00
  0.00000000E+00  0.00000000E+00  0.00000000E+00
  0.00000000E+00  0.00000000E+00  0.00000000E+00
  0.00000000E+00  0.00000000E+00  0.00000000E+00
  0.00000000E+00  0.00000000E+00  0.00000000E+00
  0.00000000E+00  0.00000000E+00  0.00000000E+00
  0.00000000E+00  0.00000000E+00  0.00000000E+00
  0.00000000E+00  0.00000000E+00  0.00000000E+00
  0.00000000E+00  0.00000000E+00  0.00000000E+00
  0.00000000E+00  0.00000000E+00  0.00000000E+00
  0.00000000E+00  0.00000000E+00  0.00000000E+00
