Au  O Pd                                
   1.00000000000000     
    11.0025815152626798    0.0000000000000000    0.0000000000000000
     5.5012907576313399    9.5285150994265617    0.0000000000000000
     0.0000000000000000    0.0000000000000000   26.1917850942952910
   Au   O    Pd
    24     8    24
Selective dynamics
Direct
  0.0833333333333357  0.0833333333333357  0.3817991009012260   F   F   F
  0.2520576331646200  0.5020717624188393  0.5627791774279469   T   T   T
  0.0833333333333357  0.8333333333333357  0.3817991009012260   F   F   F
  0.7516820910143759  0.4986481208316247  0.5689117088968852   T   T   T
  0.9874148636135015  0.0085340572370485  0.5622661222959500   T   T   T
  0.8333333333333357  0.5833333333333357  0.3817991009012260   F   F   F
  0.0833333333333357  0.3333333333333357  0.3817991009012260   F   F   F
  0.9174683491310234  0.4202451637255719  0.4775456554534465   T   T   T
  0.0039987438707438  0.2443079052516090  0.5650979973604242   T   T   T
  0.6632747365711901  0.4171720669354494  0.4740696398785266   T   T   T
  0.8333333333333357  0.3333333333333357  0.3817991009012260   F   F   F
  0.7645816473684900  0.9713128930919408  0.6063560824754044   T   T   T
  0.9609882628887475  0.5352903218610064  0.6018663603892701   T   T   T
  0.6698610266776744  0.1638070717214741  0.4716757793331732   T   T   T
  0.5080646107931687  0.7477197139625368  0.5674667519757902   T   T   T
  0.4100473348581219  0.9170665731425088  0.4733551402611361   T   T   T
  0.5833333333333357  0.8333333333333357  0.3817991009012260   F   F   F
  0.2154057432538281  0.0100802807297194  0.6004749105645034   T   T   T
  0.5132809190274720  0.2484466360207517  0.5616301924830486   T   T   T
  0.5102972095785764  0.9975993855590904  0.5623335828395493   T   T   T
  0.4107255663280419  0.1701717754175993  0.4718093142473319   T   T   T
  0.7531325052035091  0.7584166360792811  0.5604424310140377   T   T   T
  0.3333333333333357  0.5833333333333357  0.3817991009012260   F   F   F
  0.2485278181718659  0.7530448059291671  0.5622603237223602   T   T   T
  0.0884369368159630  0.6177817171043245  0.6182528748436428   T   T   T
  0.5401423611380982  0.4521791069942676  0.6354846056820171   T   T   T
  0.3436007885893059  0.0928719401266846  0.6177513716120709   T   T   T
  0.0973521426082819  0.3279115986742944  0.6185116333596168   T   T   T
  0.3508894871431804  0.8078463625135552  0.6239198383192784   T   T   T
  0.5984576166723884  0.1698751576338673  0.6347239066061798   T   T   T
  0.8288357706041430  0.3523125244536031  0.6276652536794179   T   T   T
  0.8708905099771329  0.0784814771856391  0.6329081346540433   T   T   T
  0.5833333333333357  0.5833333333333357  0.3817991009012260   F   F   F
  0.1631888312574669  0.4197038954382440  0.4758196334892287   T   T   T
  0.5833333333333357  0.3333333333333357  0.3817991009012260   F   F   F
  0.3333333333333357  0.3333333333333357  0.3817991009012260   F   F   F
  0.2586138427572020  0.2564665864128312  0.5699201012048487   T   T   T
  0.5833333333333357  0.0833333333333357  0.3817991009012260   F   F   F
  0.1635845716875130  0.6685684060421879  0.4728639056410985   T   T   T
  0.1587275534950581  0.9214414432492549  0.4749193165607377   T   T   T
  0.5044516749706670  0.4978911668910403  0.5641855371694271   T   T   T
  0.3333333333333357  0.0833333333333357  0.3817991009012260   F   F   F
  0.1642371774974782  0.1676668440596459  0.4762018441105905   T   T   T
  0.8333333333333357  0.0833333333333357  0.3817991009012260   F   F   F
  0.9946000161596616  0.7612287889359116  0.5621320904077562   T   T   T
  0.9127187275997500  0.9160700640376460  0.4750050369877951   T   T   T
  0.9170358537258445  0.6682404503432448  0.4713704628552316   T   T   T
  0.0833333333333357  0.5833333333333357  0.3817991009012260   F   F   F
  0.7075520403860874  0.2724564558803114  0.6318265492769594   T   T   T
  0.6635824889449720  0.6654946843369561  0.4767000041533765   T   T   T
  0.9148388603144101  0.1688785380897129  0.4741753315565428   T   T   T
  0.8333333333333357  0.8333333333333357  0.3817991009012260   F   F   F
  0.6651472680079027  0.9180545418886030  0.4721430045407217   T   T   T
  0.3333333333333357  0.8333333333333357  0.3817991009012260   F   F   F
  0.4133718003086809  0.6678980143119992  0.4723808592829463   T   T   T
  0.4134004254937543  0.4177653831380640  0.4748676099062903   T   T   T
 
  0.00000000E+00  0.00000000E+00  0.00000000E+00
  0.00000000E+00  0.00000000E+00  0.00000000E+00
  0.00000000E+00  0.00000000E+00  0.00000000E+00
  0.00000000E+00  0.00000000E+00  0.00000000E+00
  0.00000000E+00  0.00000000E+00  0.00000000E+00
  0.00000000E+00  0.00000000E+00  0.00000000E+00
  0.00000000E+00  0.00000000E+00  0.00000000E+00
  0.00000000E+00  0.00000000E+00  0.00000000E+00
  0.00000000E+00  0.00000000E+00  0.00000000E+00
  0.00000000E+00  0.00000000E+00  0.00000000E+00
  0.00000000E+00  0.00000000E+00  0.00000000E+00
  0.00000000E+00  0.00000000E+00  0.00000000E+00
  0.00000000E+00  0.00000000E+00  0.00000000E+00
  0.00000000E+00  0.00000000E+00  0.00000000E+00
  0.00000000E+00  0.00000000E+00  0.00000000E+00
  0.00000000E+00  0.00000000E+00  0.00000000E+00
  0.00000000E+00  0.00000000E+00  0.00000000E+00
  0.00000000E+00  0.00000000E+00  0.00000000E+00
  0.00000000E+00  0.00000000E+00  0.00000000E+00
  0.00000000E+00  0.00000000E+00  0.00000000E+00
  0.00000000E+00  0.00000000E+00  0.00000000E+00
  0.00000000E+00  0.00000000E+00  0.00000000E+00
  0.00000000E+00  0.00000000E+00  0.00000000E+00
  0.00000000E+00  0.00000000E+00  0.00000000E+00
  0.00000000E+00  0.00000000E+00  0.00000000E+00
  0.00000000E+00  0.00000000E+00  0.00000000E+00
  0.00000000E+00  0.00000000E+00  0.00000000E+00
  0.00000000E+00  0.00000000E+00  0.00000000E+00
  0.00000000E+00  0.00000000E+00  0.00000000E+00
  0.00000000E+00  0.00000000E+00  0.00000000E+00
  0.00000000E+00  0.00000000E+00  0.00000000E+00
  0.00000000E+00  0.00000000E+00  0.00000000E+00
  0.00000000E+00  0.00000000E+00  0.00000000E+00
  0.00000000E+00  0.00000000E+00  0.00000000E+00
  0.00000000E+00  0.00000000E+00  0.00000000E+00
  0.00000000E+00  0.00000000E+00  0.00000000E+00
  0.00000000E+00  0.00000000E+00  0.00000000E+00
  0.00000000E+00  0.00000000E+00  0.00000000E+00
  0.00000000E+00  0.00000000E+00  0.00000000E+00
  0.00000000E+00  0.00000000E+00  0.00000000E+00
  0.00000000E+00  0.00000000E+00  0.00000000E+00
  0.00000000E+00  0.00000000E+00  0.00000000E+00
  0.00000000E+00  0.00000000E+00  0.00000000E+00
  0.00000000E+00  0.00000000E+00  0.00000000E+00
  0.00000000E+00  0.00000000E+00  0.00000000E+00
  0.00000000E+00  0.00000000E+00  0.00000000E+00
  0.00000000E+00  0.00000000E+00  0.00000000E+00
  0.00000000E+00  0.00000000E+00  0.00000000E+00
  0.00000000E+00  0.00000000E+00  0.00000000E+00
  0.00000000E+00  0.00000000E+00  0.00000000E+00
  0.00000000E+00  0.00000000E+00  0.00000000E+00
  0.00000000E+00  0.00000000E+00  0.00000000E+00
  0.00000000E+00  0.00000000E+00  0.00000000E+00
  0.00000000E+00  0.00000000E+00  0.00000000E+00
  0.00000000E+00  0.00000000E+00  0.00000000E+00
  0.00000000E+00  0.00000000E+00  0.00000000E+00
