Au  O Pd                                
   1.00000000000000     
    11.0025815152626798    0.0000000000000000    0.0000000000000000
     5.5012907576313399    9.5285150994265617    0.0000000000000000
     0.0000000000000000    0.0000000000000000   26.1917850942952910
   Au   O    Pd
    24     8    24
Selective dynamics
Direct
  0.0833333333333357  0.0833333333333357  0.3817991009012260   F   F   F
  0.2519913152344209  0.5022384795647887  0.5628414818408694   T   T   T
  0.0833333333333357  0.8333333333333357  0.3817991009012260   F   F   F
  0.7516030477472669  0.4987702858397593  0.5689331351301118   T   T   T
 -0.0126923364087932  0.0085482285270151  0.5623610028453506   T   T   T
  0.8333333333333357  0.5833333333333357  0.3817991009012260   F   F   F
  0.0833333333333357  0.3333333333333357  0.3817991009012260   F   F   F
  0.9174600546464881  0.4200471387229850  0.4775825390586372   T   T   T
  0.0040476678978565  0.2441641104602251  0.5650555631029582   T   T   T
  0.6632946659422038  0.4171009537290700  0.4741232143486747   T   T   T
  0.8333333333333357  0.3333333333333357  0.3817991009012260   F   F   F
  0.7645531284936172 -0.0287171576728686  0.6063562757444660   T   T   T
 -0.0391911332031002  0.5353678309210441  0.6018683063670416   T   T   T
  0.6699081946585997  0.1636286857998342  0.4716954555469771   T   T   T
  0.5079221571461399  0.7477850584264506  0.5674569635217666   T   T   T
  0.4100710763407032  0.9169950374795585  0.4733503755179396   T   T   T
  0.5833333333333357  0.8333333333333357  0.3817991009012260   F   F   F
  0.2152482219484834  0.0102026971956632  0.6004864313885906   T   T   T
  0.5129566975450562  0.2485705024387850  0.5616648814394964   T   T   T
  0.5102862896436934 -0.0024326682073429  0.5623154326147921   T   T   T
  0.4107512446028505  0.1701299255701813  0.4717262714788875   T   T   T
  0.7530699055367941  0.7585495621788584  0.5605276096828926   T   T   T
  0.3333333333333357  0.5833333333333357  0.3817991009012260   F   F   F
  0.2485070797772264  0.7530357207052617  0.5622681421082740   T   T   T
  0.0882404089714182  0.6179009085880631  0.6182082060286189   T   T   T
  0.5398474415928999  0.4522901398715826  0.6354715138125686   T   T   T
  0.3434909905043023  0.0930104796790114  0.6177721973817371   T   T   T
  0.0972518073839183  0.3279791293587914  0.6184898005095454   T   T   T
  0.3508675164856433  0.8079462817329364  0.6238997260376019   T   T   T
  0.5984145715746210  0.1697128716295682  0.6347366934266031   T   T   T
  0.8287612908312012  0.3524704302361128  0.6276641491477086   T   T   T
  0.8708132425721168  0.0784218337177168  0.6328888976692848   T   T   T
  0.5833333333333357  0.5833333333333357  0.3817991009012260   F   F   F
  0.1631190471269978  0.4197276763777052  0.4757842509097994   T   T   T
  0.5833333333333357  0.3333333333333357  0.3817991009012260   F   F   F
  0.3333333333333357  0.3333333333333357  0.3817991009012260   F   F   F
  0.2587309274544410  0.2561678121366491  0.5698529963125568   T   T   T
  0.5833333333333357  0.0833333333333357  0.3817991009012260   F   F   F
  0.1635756014554070  0.6686161376677421  0.4729269994962281   T   T   T
  0.1588862869255070  0.9213180010714740  0.4748414438624801   T   T   T
  0.5043767255882962  0.4978446629258877  0.5642589077833084   T   T   T
  0.3333333333333357  0.0833333333333357  0.3817991009012260   F   F   F
  0.1642135412894093  0.1677072067892676  0.4762286255167033   T   T   T
  0.8333333333333357  0.0833333333333357  0.3817991009012260   F   F   F
 -0.0054200218047053  0.7613181883648923  0.5620997383100260   T   T   T
  0.9126315787887914  0.9159720811417758  0.4750942975491311   T   T   T
  0.9170080247493436  0.6682411268131517  0.4713493704701511   T   T   T
  0.0833333333333357  0.5833333333333357  0.3817991009012260   F   F   F
  0.7074994348378941  0.2724878113685669  0.6317542246855760   T   T   T
  0.6635424729122615  0.6654462208066149  0.4767146357362461   T   T   T
  0.9146134335539011  0.1690581154794944  0.4741675915815564   T   T   T
  0.8333333333333357  0.8333333333333357  0.3817991009012260   F   F   F
  0.6652106898477105  0.9180018848081992  0.4721271592471650   T   T   T
  0.3333333333333357  0.8333333333333357  0.3817991009012260   F   F   F
  0.4133817127906496  0.6679172597895550  0.4723758972809881   T   T   T
  0.4135365608722517  0.4177185100000605  0.4748660949511925   T   T   T
 
  0.00000000E+00  0.00000000E+00  0.00000000E+00
  0.00000000E+00  0.00000000E+00  0.00000000E+00
  0.00000000E+00  0.00000000E+00  0.00000000E+00
  0.00000000E+00  0.00000000E+00  0.00000000E+00
  0.00000000E+00  0.00000000E+00  0.00000000E+00
  0.00000000E+00  0.00000000E+00  0.00000000E+00
  0.00000000E+00  0.00000000E+00  0.00000000E+00
  0.00000000E+00  0.00000000E+00  0.00000000E+00
  0.00000000E+00  0.00000000E+00  0.00000000E+00
  0.00000000E+00  0.00000000E+00  0.00000000E+00
  0.00000000E+00  0.00000000E+00  0.00000000E+00
  0.00000000E+00  0.00000000E+00  0.00000000E+00
  0.00000000E+00  0.00000000E+00  0.00000000E+00
  0.00000000E+00  0.00000000E+00  0.00000000E+00
  0.00000000E+00  0.00000000E+00  0.00000000E+00
  0.00000000E+00  0.00000000E+00  0.00000000E+00
  0.00000000E+00  0.00000000E+00  0.00000000E+00
  0.00000000E+00  0.00000000E+00  0.00000000E+00
  0.00000000E+00  0.00000000E+00  0.00000000E+00
  0.00000000E+00  0.00000000E+00  0.00000000E+00
  0.00000000E+00  0.00000000E+00  0.00000000E+00
  0.00000000E+00  0.00000000E+00  0.00000000E+00
  0.00000000E+00  0.00000000E+00  0.00000000E+00
  0.00000000E+00  0.00000000E+00  0.00000000E+00
  0.00000000E+00  0.00000000E+00  0.00000000E+00
  0.00000000E+00  0.00000000E+00  0.00000000E+00
  0.00000000E+00  0.00000000E+00  0.00000000E+00
  0.00000000E+00  0.00000000E+00  0.00000000E+00
  0.00000000E+00  0.00000000E+00  0.00000000E+00
  0.00000000E+00  0.00000000E+00  0.00000000E+00
  0.00000000E+00  0.00000000E+00  0.00000000E+00
  0.00000000E+00  0.00000000E+00  0.00000000E+00
  0.00000000E+00  0.00000000E+00  0.00000000E+00
  0.00000000E+00  0.00000000E+00  0.00000000E+00
  0.00000000E+00  0.00000000E+00  0.00000000E+00
  0.00000000E+00  0.00000000E+00  0.00000000E+00
  0.00000000E+00  0.00000000E+00  0.00000000E+00
  0.00000000E+00  0.00000000E+00  0.00000000E+00
  0.00000000E+00  0.00000000E+00  0.00000000E+00
  0.00000000E+00  0.00000000E+00  0.00000000E+00
  0.00000000E+00  0.00000000E+00  0.00000000E+00
  0.00000000E+00  0.00000000E+00  0.00000000E+00
  0.00000000E+00  0.00000000E+00  0.00000000E+00
  0.00000000E+00  0.00000000E+00  0.00000000E+00
  0.00000000E+00  0.00000000E+00  0.00000000E+00
  0.00000000E+00  0.00000000E+00  0.00000000E+00
  0.00000000E+00  0.00000000E+00  0.00000000E+00
  0.00000000E+00  0.00000000E+00  0.00000000E+00
  0.00000000E+00  0.00000000E+00  0.00000000E+00
  0.00000000E+00  0.00000000E+00  0.00000000E+00
  0.00000000E+00  0.00000000E+00  0.00000000E+00
  0.00000000E+00  0.00000000E+00  0.00000000E+00
  0.00000000E+00  0.00000000E+00  0.00000000E+00
  0.00000000E+00  0.00000000E+00  0.00000000E+00
  0.00000000E+00  0.00000000E+00  0.00000000E+00
  0.00000000E+00  0.00000000E+00  0.00000000E+00
