Au Pd                                   
   1.00000000000000     
    11.0025815152626798    0.0000000000000000    0.0000000000000000
     5.5012907576313399    9.5285150994265617    0.0000000000000000
     0.0000000000000000    0.0000000000000000   24.4917850942952882
   Au   Pd
    24    24
Selective dynamics
Direct
  0.0833333333333357  0.0833333333333357  0.4083001692812189   F   F   F
  0.3333333333333357  0.3333333333333357  0.4083001692812189   F   F   F
  0.0015615229093802  0.7470637003307012  0.6095173247529423   T   T   T
  0.3333333333333357  0.0833333333333357  0.4083001692812189   F   F   F
  0.0012659847809078  0.0003053754836414  0.6155300203505406   T   T   T
  0.9130581413773310  0.6653859659149808  0.5071538870232960   T   T   T
  0.9152129375543511  0.1641589844829124  0.5103282722053908   T   T   T
  0.7495753049279976  0.7491813115185368  0.6117311782006961   T   T   T
  0.2511694300310398  0.7471219213370501  0.6144127901083409   T   T   T
  0.1652643922530962  0.4132904858739520  0.5080854274511034   T   T   T
  0.3333333333333357  0.8333333333333357  0.4083001692812189   F   F   F
  0.1637975121544998  0.9143121095726613  0.5100387936803028   T   T   T
  0.0833333333333357  0.5833333333333357  0.4083001692812189   F   F   F
  0.4963177406905322  0.2511547726242724  0.6094545250086766   T   T   T
  0.5833333333333357  0.5833333333333357  0.4083001692812189   F   F   F
  0.4133597210528521  0.6641884544648791  0.5092145998596308   T   T   T
  0.4982776405830400  0.7517112652237932  0.6103627178609954   T   T   T
  0.6635934171082520  0.1646246504970727  0.5059623229344613   T   T   T
  0.7482874759510522 -0.0000047594088295  0.6117901223813201   T   T   T
  0.8333333333333357  0.3333333333333357  0.4083001692812189   F   F   F
  0.6640362906760655  0.4149909417278743  0.5098146888033225   T   T   T
  0.7492673170711655  0.2509203813058482  0.6171651356020318   T   T   T
  0.7525158287799765  0.4981939378722110  0.6104371723872575   T   T   T
  0.6627305261191765  0.9152863728521075  0.5057388843907468   T   T   T
  0.5833333333333357  0.3333333333333357  0.4083001692812189   F   F   F
  0.4972434332096798  0.0009427379652940  0.6043060435156633   T   T   T
  0.4141321771203232  0.1647913975588454  0.5078490000037598   T   T   T
  0.5833333333333357  0.0833333333333357  0.4083001692812189   F   F   F
  0.2487062845301731  0.2482010804795462  0.6041344704140207   T   T   T
  0.2503209089873623  0.4980672549762873  0.6039066470366053   T   T   T
  0.1644166070814614  0.6655239248205482  0.5075620274420949   T   T   T
  0.3333333333333357  0.5833333333333357  0.4083001692812189   F   F   F
  0.4137488997055770  0.4146220530205492  0.5073080387214742   T   T   T
  0.1653054501907266  0.1651462985624531  0.5079291000413524   T   T   T
  0.9154442749186210  0.9140466575875673  0.5066473319492140   T   T   T
  0.8333333333333357  0.8333333333333357  0.4083001692812189   F   F   F
  0.2495055001026651  0.0014817322394406  0.6050305304582878   T   T   T
  0.5833333333333357  0.8333333333333357  0.4083001692812189   F   F   F
  0.0010933931726289  0.2488664531346736  0.6052543711486712   T   T   T
  0.6642343336321787  0.6654216854239049  0.5083324115237932   T   T   T
  0.8333333333333357  0.5833333333333357  0.4083001692812189   F   F   F
  0.9145400826984513  0.4153003297651288  0.5076758207578478   T   T   T
  0.0833333333333357  0.3333333333333357  0.4083001692812189   F   F   F
  0.8333333333333357  0.0833333333333357  0.4083001692812189   F   F   F
  0.4147622346696836  0.9158525751447831  0.5082421577779543   T   T   T
  0.4992464246264757  0.4989958231419145  0.6068037190780825   T   T   T
  0.0833333333333357  0.8333333333333357  0.4083001692812189   F   F   F
  0.0029023233875954  0.4960887644338628  0.6048643823413709   T   T   T
 
  0.00000000E+00  0.00000000E+00  0.00000000E+00
  0.00000000E+00  0.00000000E+00  0.00000000E+00
  0.00000000E+00  0.00000000E+00  0.00000000E+00
  0.00000000E+00  0.00000000E+00  0.00000000E+00
  0.00000000E+00  0.00000000E+00  0.00000000E+00
  0.00000000E+00  0.00000000E+00  0.00000000E+00
  0.00000000E+00  0.00000000E+00  0.00000000E+00
  0.00000000E+00  0.00000000E+00  0.00000000E+00
  0.00000000E+00  0.00000000E+00  0.00000000E+00
  0.00000000E+00  0.00000000E+00  0.00000000E+00
  0.00000000E+00  0.00000000E+00  0.00000000E+00
  0.00000000E+00  0.00000000E+00  0.00000000E+00
  0.00000000E+00  0.00000000E+00  0.00000000E+00
  0.00000000E+00  0.00000000E+00  0.00000000E+00
  0.00000000E+00  0.00000000E+00  0.00000000E+00
  0.00000000E+00  0.00000000E+00  0.00000000E+00
  0.00000000E+00  0.00000000E+00  0.00000000E+00
  0.00000000E+00  0.00000000E+00  0.00000000E+00
  0.00000000E+00  0.00000000E+00  0.00000000E+00
  0.00000000E+00  0.00000000E+00  0.00000000E+00
  0.00000000E+00  0.00000000E+00  0.00000000E+00
  0.00000000E+00  0.00000000E+00  0.00000000E+00
  0.00000000E+00  0.00000000E+00  0.00000000E+00
  0.00000000E+00  0.00000000E+00  0.00000000E+00
  0.00000000E+00  0.00000000E+00  0.00000000E+00
  0.00000000E+00  0.00000000E+00  0.00000000E+00
  0.00000000E+00  0.00000000E+00  0.00000000E+00
  0.00000000E+00  0.00000000E+00  0.00000000E+00
  0.00000000E+00  0.00000000E+00  0.00000000E+00
  0.00000000E+00  0.00000000E+00  0.00000000E+00
  0.00000000E+00  0.00000000E+00  0.00000000E+00
  0.00000000E+00  0.00000000E+00  0.00000000E+00
  0.00000000E+00  0.00000000E+00  0.00000000E+00
  0.00000000E+00  0.00000000E+00  0.00000000E+00
  0.00000000E+00  0.00000000E+00  0.00000000E+00
  0.00000000E+00  0.00000000E+00  0.00000000E+00
  0.00000000E+00  0.00000000E+00  0.00000000E+00
  0.00000000E+00  0.00000000E+00  0.00000000E+00
  0.00000000E+00  0.00000000E+00  0.00000000E+00
  0.00000000E+00  0.00000000E+00  0.00000000E+00
  0.00000000E+00  0.00000000E+00  0.00000000E+00
  0.00000000E+00  0.00000000E+00  0.00000000E+00
  0.00000000E+00  0.00000000E+00  0.00000000E+00
  0.00000000E+00  0.00000000E+00  0.00000000E+00
  0.00000000E+00  0.00000000E+00  0.00000000E+00
  0.00000000E+00  0.00000000E+00  0.00000000E+00
  0.00000000E+00  0.00000000E+00  0.00000000E+00
  0.00000000E+00  0.00000000E+00  0.00000000E+00
