Au Pd                                   
   1.00000000000000     
    11.0025815152626798    0.0000000000000000    0.0000000000000000
     5.5012907576313399    9.5285150994265617    0.0000000000000000
     0.0000000000000000    0.0000000000000000   24.4917850942952882
   Au   Pd
    24    24
Selective dynamics
Direct
  0.0833333333333357  0.0833333333333357  0.4083001692812189   F   F   F
  0.0833333333333357  0.3333333333333357  0.4083001692812189   F   F   F
  0.9173470190889760  0.9172357312113656  0.5076844881719600   T   T   T
 -0.0000837073866797  0.0003685063930911  0.6101078262661546   T   T   T
  0.3333333333333357  0.0833333333333357  0.4083001692812189   F   F   F
  0.0833333333333357  0.5833333333333357  0.4083001692812189   F   F   F
  0.7499254119205437  0.7506980888276814  0.6132293151254345   T   T   T
  0.3333333333333357  0.5833333333333357  0.4083001692812189   F   F   F
  0.4158920448955119  0.6666872191390248  0.5130802335474854   T   T   T
  0.6706248615016944  0.6649792365796581  0.5088300681782961   T   T   T
  0.6693922004185983  0.4131084261706840  0.5119364272198484   T   T   T
  0.8333333333333357  0.3333333333333357  0.4083001692812189   F   F   F
 -0.0001807998216886  0.4989190604620432  0.6086683448050756   T   T   T
  0.4155348869263485  0.9184986171385594  0.5107416238842728   T   T   T
  0.5012735714489412  0.4988952886802418  0.6152909058693113   T   T   T
  0.5833333333333357  0.5833333333333357  0.4083001692812189   F   F   F
  0.1659897802074297  0.6665756284671939  0.5098744753669792   T   T   T
  0.5833333333333357  0.3333333333333357  0.4083001692812189   F   F   F
  0.4985038084065847  0.0019721986237980  0.6143313297862297   T   T   T
  0.4159456864197653  0.1706969582125969  0.5077235874945889   T   T   T
  0.6682528683788070  0.9175883595814854  0.5064094403975368   T   T   T
  0.3333333333333357  0.8333333333333357  0.4083001692812189   F   F   F
  0.2505963265000277  0.4988900885771249  0.6117319011025646   T   T   T
  0.8333333333333357  0.0833333333333357  0.4083001692812189   F   F   F
  0.5018187140286982  0.2488161236603451  0.6053827722560698   T   T   T
  0.4163639029774309  0.4161465232047141  0.5097141526945573   T   T   T
  0.0833333333333357  0.8333333333333357  0.4083001692812189   F   F   F
 -0.0009541477364981  0.7512603678290682  0.6063576018912216   T   T   T
  0.3333333333333357  0.3333333333333357  0.4083001692812189   F   F   F
  0.1654370749186358  0.9188121747862624  0.5094609415960561   T   T   T
  0.1645862948835191  0.1681170984547581  0.5086944404419701   T   T   T
  0.2489751437535919  0.0002968348038895  0.6064101769789854   T   T   T
  0.9175855495845973  0.6647124609472993  0.5076223078975728   T   T   T
  0.5833333333333357  0.0833333333333357  0.4083001692812189   F   F   F
  0.2499763703138640  0.2485823582982502  0.6046474184063112   T   T   T
  0.6674514871337207  0.1677761440038681  0.5080008056170963   T   T   T
  0.0003025226351077  0.2495997732931013  0.6043349319414486   T   T   T
  0.4994368003597222  0.7504045122849625  0.6089889080527117   T   T   T
  0.9202386774389528  0.4155735920968150  0.5085538081789672   T   T   T
  0.7492053664176002  0.0010886729270945  0.6056882556522201   T   T   T
  0.7501360633466235  0.2482945297369074  0.6066441526618294   T   T   T
  0.8333333333333357  0.5833333333333357  0.4083001692812189   F   F   F
  0.9191878806968427  0.1662836168545345  0.5095173065139827   T   T   T
  0.7504665638919834  0.4988428763365186  0.6071519538189137   T   T   T
  0.8333333333333357  0.8333333333333357  0.4083001692812189   F   F   F
  0.5833333333333357  0.8333333333333357  0.4083001692812189   F   F   F
  0.1661171736844573  0.4168375202458191  0.5087008616056141   T   T   T
  0.2494072018743621  0.7513672888104145  0.6083937692407337   T   T   T
 
  0.00000000E+00  0.00000000E+00  0.00000000E+00
  0.00000000E+00  0.00000000E+00  0.00000000E+00
  0.00000000E+00  0.00000000E+00  0.00000000E+00
  0.00000000E+00  0.00000000E+00  0.00000000E+00
  0.00000000E+00  0.00000000E+00  0.00000000E+00
  0.00000000E+00  0.00000000E+00  0.00000000E+00
  0.00000000E+00  0.00000000E+00  0.00000000E+00
  0.00000000E+00  0.00000000E+00  0.00000000E+00
  0.00000000E+00  0.00000000E+00  0.00000000E+00
  0.00000000E+00  0.00000000E+00  0.00000000E+00
  0.00000000E+00  0.00000000E+00  0.00000000E+00
  0.00000000E+00  0.00000000E+00  0.00000000E+00
  0.00000000E+00  0.00000000E+00  0.00000000E+00
  0.00000000E+00  0.00000000E+00  0.00000000E+00
  0.00000000E+00  0.00000000E+00  0.00000000E+00
  0.00000000E+00  0.00000000E+00  0.00000000E+00
  0.00000000E+00  0.00000000E+00  0.00000000E+00
  0.00000000E+00  0.00000000E+00  0.00000000E+00
  0.00000000E+00  0.00000000E+00  0.00000000E+00
  0.00000000E+00  0.00000000E+00  0.00000000E+00
  0.00000000E+00  0.00000000E+00  0.00000000E+00
  0.00000000E+00  0.00000000E+00  0.00000000E+00
  0.00000000E+00  0.00000000E+00  0.00000000E+00
  0.00000000E+00  0.00000000E+00  0.00000000E+00
  0.00000000E+00  0.00000000E+00  0.00000000E+00
  0.00000000E+00  0.00000000E+00  0.00000000E+00
  0.00000000E+00  0.00000000E+00  0.00000000E+00
  0.00000000E+00  0.00000000E+00  0.00000000E+00
  0.00000000E+00  0.00000000E+00  0.00000000E+00
  0.00000000E+00  0.00000000E+00  0.00000000E+00
  0.00000000E+00  0.00000000E+00  0.00000000E+00
  0.00000000E+00  0.00000000E+00  0.00000000E+00
  0.00000000E+00  0.00000000E+00  0.00000000E+00
  0.00000000E+00  0.00000000E+00  0.00000000E+00
  0.00000000E+00  0.00000000E+00  0.00000000E+00
  0.00000000E+00  0.00000000E+00  0.00000000E+00
  0.00000000E+00  0.00000000E+00  0.00000000E+00
  0.00000000E+00  0.00000000E+00  0.00000000E+00
  0.00000000E+00  0.00000000E+00  0.00000000E+00
  0.00000000E+00  0.00000000E+00  0.00000000E+00
  0.00000000E+00  0.00000000E+00  0.00000000E+00
  0.00000000E+00  0.00000000E+00  0.00000000E+00
  0.00000000E+00  0.00000000E+00  0.00000000E+00
  0.00000000E+00  0.00000000E+00  0.00000000E+00
  0.00000000E+00  0.00000000E+00  0.00000000E+00
  0.00000000E+00  0.00000000E+00  0.00000000E+00
  0.00000000E+00  0.00000000E+00  0.00000000E+00
  0.00000000E+00  0.00000000E+00  0.00000000E+00
