Au  O Pd                                
   1.00000000000000     
    11.0025815152626798    0.0000000000000000    0.0000000000000000
     5.5012907576313399    9.5285150994265617    0.0000000000000000
     0.0000000000000000    0.0000000000000000   26.1917850942952910
   Au   O    Pd
    24     8    24
Selective dynamics
Direct
  0.0833333333333357  0.0833333333333357  0.3817991009012260   F   F   F
  0.0833333333333357  0.8333333333333357  0.3817991009012260   F   F   F
  0.6747418923574713  0.9108424896683240  0.4809977564784257   T   T   T
  0.8333333333333357  0.8333333333333357  0.3817991009012260   F   F   F
  0.0833333333333357  0.3333333333333357  0.3817991009012260   F   F   F
  0.6645672969783802  0.6740327503350868  0.5193949700716610   T   T   T
  0.8333333333333357  0.5833333333333357  0.3817991009012260   F   F   F
  0.6707516177559623  0.4196895485801251  0.4801378857068531   T   T   T
  0.0833333333333357  0.5833333333333357  0.3817991009012260   F   F   F
  0.9174873657004141  0.6625075236764110  0.4896378730830033   T   T   T
  0.8333333333333357  0.3333333333333357  0.3817991009012260   F   F   F
  0.1647650668434593  0.9152319618510820  0.4775199867423647   T   T   T
  0.3333333333333357  0.8333333333333357  0.3817991009012260   F   F   F
  0.5833333333333357  0.8333333333333357  0.3817991009012260   F   F   F
  0.1652764369599040  0.1694698994399185  0.4769632356834418   T   T   T
  0.4207554966838467  0.6647461732076626  0.4804108703611639   T   T   T
  0.5833333333333357  0.5833333333333357  0.3817991009012260   F   F   F
  0.3333333333333357  0.3333333333333357  0.3817991009012260   F   F   F
  0.5833333333333357  0.3333333333333357  0.3817991009012260   F   F   F
  0.4175416338226673  0.1661295319732766  0.4765055788933560   T   T   T
  0.5833333333333357  0.0833333333333357  0.3817991009012260   F   F   F
  0.3333333333333357  0.5833333333333357  0.3817991009012260   F   F   F
  0.2556715388357319  0.7478802774521289  0.5722170106851983   T   T   T
  0.4243698674447915  0.9096310192393285  0.4756874302986691   T   T   T
  0.3582876773734693  0.3199348364757701  0.6121592349383489   T   T   T
  0.1031235324950476  0.5824254796778469  0.6183117574596317   T   T   T
  0.0911716718076093  0.2955632492044682  0.6158669526155625   T   T   T
  0.8307117796626095  0.8450071622346934  0.6234944385935494   T   T   T
  0.5006510060731747  0.9200309883055383  0.6355400785077183   T   T   T
  0.8449006802181322  0.5683480526491854  0.6372323103031869   T   T   T
  0.5600290498612652  0.5507795557275217  0.6325005861106767   T   T   T
  0.8435043581644476  0.0914862202199550  0.6118514858116112   T   T   T
  0.4162962817890719  0.4189200405999328  0.4778066259016197   T   T   T
  0.5101145889846657  0.2422443053241742  0.5623620014470709   T   T   T
  0.7016152826068791  0.7638925914440370  0.6275418832500785   T   T   T
  0.1643615554547256  0.6649059516734365  0.4811291881522600   T   T   T
  0.2591459077725274 -0.0109228107515508  0.5653743248192625   T   T   T
  0.5032684486669514  0.4969506316051178  0.5685502649690407   T   T   T
  0.3333333333333357  0.0833333333333357  0.3817991009012260   F   F   F
  0.1650962390224519  0.4178145884351366  0.4794553762200207   T   T   T
  0.4776524978708808  0.7535538549510575  0.6205611706711496   T   T   T
 -0.0000370267866067  0.7543393946912534  0.5775064442095147   T   T   T
  0.9175634097126044  0.9142624984810797  0.4763661160352178   T   T   T
  0.8333333333333357  0.0833333333333357  0.3817991009012260   F   F   F
  0.6702903130955891  0.1641772157378473  0.4763685824048366   T   T   T
  0.7467508528664580  0.0009115932288192  0.5728122528222094   T   T   T
  0.0000897563599553  0.4935454701150364  0.5842917159206523   T   T   T
  0.7513840470193702  0.2513497024177055  0.5640194543980103   T   T   T
 -0.0026222704641091  0.2459522476022762  0.5639078466296660   T   T   T
  0.9115537203359221  0.4238907784641119  0.4800952466581865   T   T   T
  0.7511912171328560  0.4817831983131015  0.5981596906092302   T   T   T
  0.0064503391584103 -0.0029105244361442  0.5648857129796635   T   T   T
  0.9150978575442054  0.1674155722201288  0.4740557034815003   T   T   T
  0.2582058398855144  0.4977941814099215  0.5686740205936053   T   T   T
  0.2633013949926178  0.2310976254630095  0.5740245457702289   T   T   T
  0.5072783171811631 -0.0141916399934049  0.5657573315210126   T   T   T
 
  0.00000000E+00  0.00000000E+00  0.00000000E+00
  0.00000000E+00  0.00000000E+00  0.00000000E+00
  0.00000000E+00  0.00000000E+00  0.00000000E+00
  0.00000000E+00  0.00000000E+00  0.00000000E+00
  0.00000000E+00  0.00000000E+00  0.00000000E+00
  0.00000000E+00  0.00000000E+00  0.00000000E+00
  0.00000000E+00  0.00000000E+00  0.00000000E+00
  0.00000000E+00  0.00000000E+00  0.00000000E+00
  0.00000000E+00  0.00000000E+00  0.00000000E+00
  0.00000000E+00  0.00000000E+00  0.00000000E+00
  0.00000000E+00  0.00000000E+00  0.00000000E+00
  0.00000000E+00  0.00000000E+00  0.00000000E+00
  0.00000000E+00  0.00000000E+00  0.00000000E+00
  0.00000000E+00  0.00000000E+00  0.00000000E+00
  0.00000000E+00  0.00000000E+00  0.00000000E+00
  0.00000000E+00  0.00000000E+00  0.00000000E+00
  0.00000000E+00  0.00000000E+00  0.00000000E+00
  0.00000000E+00  0.00000000E+00  0.00000000E+00
  0.00000000E+00  0.00000000E+00  0.00000000E+00
  0.00000000E+00  0.00000000E+00  0.00000000E+00
  0.00000000E+00  0.00000000E+00  0.00000000E+00
  0.00000000E+00  0.00000000E+00  0.00000000E+00
  0.00000000E+00  0.00000000E+00  0.00000000E+00
  0.00000000E+00  0.00000000E+00  0.00000000E+00
  0.00000000E+00  0.00000000E+00  0.00000000E+00
  0.00000000E+00  0.00000000E+00  0.00000000E+00
  0.00000000E+00  0.00000000E+00  0.00000000E+00
  0.00000000E+00  0.00000000E+00  0.00000000E+00
  0.00000000E+00  0.00000000E+00  0.00000000E+00
  0.00000000E+00  0.00000000E+00  0.00000000E+00
  0.00000000E+00  0.00000000E+00  0.00000000E+00
  0.00000000E+00  0.00000000E+00  0.00000000E+00
  0.00000000E+00  0.00000000E+00  0.00000000E+00
  0.00000000E+00  0.00000000E+00  0.00000000E+00
  0.00000000E+00  0.00000000E+00  0.00000000E+00
  0.00000000E+00  0.00000000E+00  0.00000000E+00
  0.00000000E+00  0.00000000E+00  0.00000000E+00
  0.00000000E+00  0.00000000E+00  0.00000000E+00
  0.00000000E+00  0.00000000E+00  0.00000000E+00
  0.00000000E+00  0.00000000E+00  0.00000000E+00
  0.00000000E+00  0.00000000E+00  0.00000000E+00
  0.00000000E+00  0.00000000E+00  0.00000000E+00
  0.00000000E+00  0.00000000E+00  0.00000000E+00
  0.00000000E+00  0.00000000E+00  0.00000000E+00
  0.00000000E+00  0.00000000E+00  0.00000000E+00
  0.00000000E+00  0.00000000E+00  0.00000000E+00
  0.00000000E+00  0.00000000E+00  0.00000000E+00
  0.00000000E+00  0.00000000E+00  0.00000000E+00
  0.00000000E+00  0.00000000E+00  0.00000000E+00
  0.00000000E+00  0.00000000E+00  0.00000000E+00
  0.00000000E+00  0.00000000E+00  0.00000000E+00
  0.00000000E+00  0.00000000E+00  0.00000000E+00
  0.00000000E+00  0.00000000E+00  0.00000000E+00
  0.00000000E+00  0.00000000E+00  0.00000000E+00
  0.00000000E+00  0.00000000E+00  0.00000000E+00
  0.00000000E+00  0.00000000E+00  0.00000000E+00
