Au  O Pd                                
   1.00000000000000     
    11.0025815152626798    0.0000000000000000    0.0000000000000000
     5.5012907576313399    9.5285150994265617    0.0000000000000000
     0.0000000000000000    0.0000000000000000   26.1917850942952910
   Au   O    Pd
    24     8    24
Selective dynamics
Direct
  0.3333333333333357  0.8333333333333357  0.3817991009012260   F   F   F
  0.9138408246391052  0.9190453228007233  0.4739564014548060   T   T   T
  0.0833333333333357  0.5833333333333357  0.3817991009012260   F   F   F
  0.6597800410140415  0.9199382815091106  0.4741792903829217   T   T   T
  0.0833333333333357  0.3333333333333357  0.3817991009012260   F   F   F
  0.9148296009971240  0.4183292464972563  0.4821392317344234   T   T   T
  0.8333333333333357  0.8333333333333357  0.3817991009012260   F   F   F
  0.9928992123990370  0.2445330958051231  0.5745884654147644   T   T   T
  0.8333333333333357  0.5833333333333357  0.3817991009012260   F   F   F
  0.3333333333333357  0.0833333333333357  0.3817991009012260   F   F   F
  0.2410105134397152  0.0004674971377618  0.5658370005790039   T   T   T
  0.3333333333333357  0.5833333333333357  0.3817991009012260   F   F   F
  0.1642807257879136  0.4189712493449348  0.4761763315600877   T   T   T
  0.6608552012603064  0.6694539530525446  0.4751715457950677   T   T   T
  0.1648178170278917  0.9196969385843511  0.4739962018863763   T   T   T
  0.4115076958453724  0.1700609082493837  0.4824133445658665   T   T   T
  0.5833333333333357  0.5833333333333357  0.3817991009012260   F   F   F
  0.6615116516702946  0.1710295997188976  0.4725265635626549   T   T   T
  0.7611091268177943  0.9920413609134253  0.5698382373324518   T   T   T
  0.7496274399492557  0.4978236356629134  0.5720662368045365   T   T   T
  0.8333333333333357  0.3333333333333357  0.3817991009012260   F   F   F
  0.6588200664206807  0.4201790008038172  0.4776573653053567   T   T   T
  0.7492642756158118  0.2493883019446103  0.5705592141543259   T   T   T
  0.2606039239846359  0.5016146479247500  0.5615016281548318   T   T   T
  0.5925153104167173  0.8158742173468124  0.6108474962634365   T   T   T
  0.0726718899043438  0.3482432362616233  0.6196640264563886   T   T   T
  0.5867394818371950  0.0894809716229288  0.6177674849656113   T   T   T
  0.5740285829952351  0.3404067935971933  0.6230668141404885   T   T   T
  0.2675121571346225  0.7118932557705726  0.6405789418144637   T   T   T
  0.0735695946660270  0.6073936700013604  0.6133654707830755   T   T   T
  0.5709959071486963  0.5904149803727357  0.6205770113211329   T   T   T
  0.3201971777797196  0.0911014785096923  0.6188564838453008   T   T   T
  0.9998990118305771  0.7562994794420981  0.5621470181029691   T   T   T
  0.3333333333333357  0.3333333333333357  0.3817991009012260   F   F   F
  0.2480125716109333  0.2620893686014941  0.5769646034871282   T   T   T
  0.0833333333333357  0.8333333333333357  0.3817991009012260   F   F   F
  0.1650531736407683  0.6698743688562876  0.4726597498790250   T   T   T
  0.9905543428580913  0.5138686603589270  0.5730680019474493   T   T   T
  0.9142195907718544  0.6676229308959684  0.4762536010690839   T   T   T
  0.2427837295860480  0.7568857674032009  0.5692986652101618   T   T   T
  0.7525685819710692  0.7489727055342510  0.5638607677793065   T   T   T
  0.5833333333333357  0.0833333333333357  0.3817991009012260   F   F   F
  0.4964452132087651  0.0007264762409787  0.5761666213080949   T   T   T
  0.4144956621910664  0.4191359587277788  0.4745027709449300   T   T   T
  0.5833333333333357  0.3333333333333357  0.3817991009012260   F   F   F
  0.8333333333333357  0.0833333333333357  0.3817991009012260   F   F   F
  0.5833333333333357  0.8333333333333357  0.3817991009012260   F   F   F
  0.9123795316819968  0.1714956085532958  0.4759862899886049   T   T   T
  0.9978801355301222  0.0006913498190738  0.5630871175178592   T   T   T
  0.4895463441812856  0.7461091096165491  0.5671879688911461   T   T   T
  0.4144478808609341  0.9167632158843708  0.4771698429135356   T   T   T
  0.1636711900044850  0.1693067855062719  0.4747477098234716   T   T   T
  0.4117841909335181  0.6677759457646523  0.4801569732614455   T   T   T
  0.4295150864868164  0.5337419189260298  0.6308843953816022   T   T   T
  0.4932206132367709  0.2600009118755673  0.5733270165957960   T   T   T
  0.0833333333333357  0.0833333333333357  0.3817991009012260   F   F   F
 
  0.00000000E+00  0.00000000E+00  0.00000000E+00
  0.00000000E+00  0.00000000E+00  0.00000000E+00
  0.00000000E+00  0.00000000E+00  0.00000000E+00
  0.00000000E+00  0.00000000E+00  0.00000000E+00
  0.00000000E+00  0.00000000E+00  0.00000000E+00
  0.00000000E+00  0.00000000E+00  0.00000000E+00
  0.00000000E+00  0.00000000E+00  0.00000000E+00
  0.00000000E+00  0.00000000E+00  0.00000000E+00
  0.00000000E+00  0.00000000E+00  0.00000000E+00
  0.00000000E+00  0.00000000E+00  0.00000000E+00
  0.00000000E+00  0.00000000E+00  0.00000000E+00
  0.00000000E+00  0.00000000E+00  0.00000000E+00
  0.00000000E+00  0.00000000E+00  0.00000000E+00
  0.00000000E+00  0.00000000E+00  0.00000000E+00
  0.00000000E+00  0.00000000E+00  0.00000000E+00
  0.00000000E+00  0.00000000E+00  0.00000000E+00
  0.00000000E+00  0.00000000E+00  0.00000000E+00
  0.00000000E+00  0.00000000E+00  0.00000000E+00
  0.00000000E+00  0.00000000E+00  0.00000000E+00
  0.00000000E+00  0.00000000E+00  0.00000000E+00
  0.00000000E+00  0.00000000E+00  0.00000000E+00
  0.00000000E+00  0.00000000E+00  0.00000000E+00
  0.00000000E+00  0.00000000E+00  0.00000000E+00
  0.00000000E+00  0.00000000E+00  0.00000000E+00
  0.00000000E+00  0.00000000E+00  0.00000000E+00
  0.00000000E+00  0.00000000E+00  0.00000000E+00
  0.00000000E+00  0.00000000E+00  0.00000000E+00
  0.00000000E+00  0.00000000E+00  0.00000000E+00
  0.00000000E+00  0.00000000E+00  0.00000000E+00
  0.00000000E+00  0.00000000E+00  0.00000000E+00
  0.00000000E+00  0.00000000E+00  0.00000000E+00
  0.00000000E+00  0.00000000E+00  0.00000000E+00
  0.00000000E+00  0.00000000E+00  0.00000000E+00
  0.00000000E+00  0.00000000E+00  0.00000000E+00
  0.00000000E+00  0.00000000E+00  0.00000000E+00
  0.00000000E+00  0.00000000E+00  0.00000000E+00
  0.00000000E+00  0.00000000E+00  0.00000000E+00
  0.00000000E+00  0.00000000E+00  0.00000000E+00
  0.00000000E+00  0.00000000E+00  0.00000000E+00
  0.00000000E+00  0.00000000E+00  0.00000000E+00
  0.00000000E+00  0.00000000E+00  0.00000000E+00
  0.00000000E+00  0.00000000E+00  0.00000000E+00
  0.00000000E+00  0.00000000E+00  0.00000000E+00
  0.00000000E+00  0.00000000E+00  0.00000000E+00
  0.00000000E+00  0.00000000E+00  0.00000000E+00
  0.00000000E+00  0.00000000E+00  0.00000000E+00
  0.00000000E+00  0.00000000E+00  0.00000000E+00
  0.00000000E+00  0.00000000E+00  0.00000000E+00
  0.00000000E+00  0.00000000E+00  0.00000000E+00
  0.00000000E+00  0.00000000E+00  0.00000000E+00
  0.00000000E+00  0.00000000E+00  0.00000000E+00
  0.00000000E+00  0.00000000E+00  0.00000000E+00
  0.00000000E+00  0.00000000E+00  0.00000000E+00
  0.00000000E+00  0.00000000E+00  0.00000000E+00
  0.00000000E+00  0.00000000E+00  0.00000000E+00
  0.00000000E+00  0.00000000E+00  0.00000000E+00
