Au  O Pd                                
   1.00000000000000     
    11.0025815152626798    0.0000000000000000    0.0000000000000000
     5.5012907576313399    9.5285150994265617    0.0000000000000000
     0.0000000000000000    0.0000000000000000   26.1917850942952910
   Au   O    Pd
    24     8    24
Selective dynamics
Direct
  0.3333333333333357  0.8333333333333357  0.3817991009012260   F   F   F
  0.9127808949872688  0.9190634516127681  0.4741086194050351   T   T   T
  0.0833333333333357  0.5833333333333357  0.3817991009012260   F   F   F
  0.6601713216381074  0.9194637502876215  0.4752250184308454   T   T   T
  0.0833333333333357  0.3333333333333357  0.3817991009012260   F   F   F
  0.9141832052821566  0.4182690962938003  0.4809240106744628   T   T   T
  0.8333333333333357  0.8333333333333357  0.3817991009012260   F   F   F
  0.9928213650313601  0.2438265443546416  0.5724561331191095   T   T   T
  0.8333333333333357  0.5833333333333357  0.3817991009012260   F   F   F
  0.3333333333333357  0.0833333333333357  0.3817991009012260   F   F   F
  0.2398894248002640 -0.0010584932074191  0.5655923130957560   T   T   T
  0.3333333333333357  0.5833333333333357  0.3817991009012260   F   F   F
  0.1635525132107511  0.4187352900489993  0.4764109115130751   T   T   T
  0.6604214366973129  0.6695342304794539  0.4750986000616076   T   T   T
  0.1645710561403685  0.9191400619824405  0.4736422962168879   T   T   T
  0.4109153189406716  0.1693750681233076  0.4803989030182218   T   T   T
  0.5833333333333357  0.5833333333333357  0.3817991009012260   F   F   F
  0.6613552791753797  0.1700839501226509  0.4727011626540835   T   T   T
  0.7641897255605052  0.9886902451126206  0.5757747036545060   T   T   T
  0.7493052265044059  0.4971969206980081  0.5709707340058850   T   T   T
  0.8333333333333357  0.3333333333333357  0.3817991009012260   F   F   F
  0.6586477344605651  0.4192933370260069  0.4772413816922340   T   T   T
  0.7492910895687220  0.2479033346494478  0.5702506587265359   T   T   T
  0.2586364711364937  0.5018019049847472  0.5615244257937796   T   T   T
  0.5900315893146061  0.8174573675858249  0.6103237847172200   T   T   T
  0.0714074882642774  0.3462614196284121  0.6191831676749312   T   T   T
  0.5795206794736318  0.0928182213411944  0.6166759333939995   T   T   T
  0.5707141838375783  0.3409627900221240  0.6201574425388646   T   T   T
  0.2683708508939783  0.7136016981092048  0.6404090195452581   T   T   T
  0.0718123145094785  0.6078299735259718  0.6133824104484146   T   T   T
  0.5721640503272624  0.5887125325230168  0.6200513493647654   T   T   T
  0.3201964086802114  0.0894027165564737  0.6179476925964484   T   T   T
 -0.0007563233233852  0.7554805143121481  0.5617692819636853   T   T   T
  0.3333333333333357  0.3333333333333357  0.3817991009012260   F   F   F
  0.2466094584561700  0.2615835512855353  0.5766230363909319   T   T   T
  0.0833333333333357  0.8333333333333357  0.3817991009012260   F   F   F
  0.1644083949221989  0.6698754178549272  0.4724846388421359   T   T   T
  0.9899575995368495  0.5130090438200317  0.5730541597665532   T   T   T
  0.9136239087271623  0.6675549959300897  0.4761824331801866   T   T   T
  0.2417076835771410  0.7565165649223137  0.5688764361808254   T   T   T
  0.7525096917353187  0.7487666400464479  0.5646084483336673   T   T   T
  0.5833333333333357  0.0833333333333357  0.3817991009012260   F   F   F
  0.4947137053663150  0.0001662976872844  0.5738474325767875   T   T   T
  0.4138133936309623  0.4188373276384427  0.4744261626083738   T   T   T
  0.5833333333333357  0.3333333333333357  0.3817991009012260   F   F   F
  0.8333333333333357  0.0833333333333357  0.3817991009012260   F   F   F
  0.5833333333333357  0.8333333333333357  0.3817991009012260   F   F   F
  0.9120413590029661  0.1706361410801719  0.4755320916138994   T   T   T
  0.9966650775412084  0.9998602840549718  0.5624817294122106   T   T   T
  0.4892791978183806  0.7450809872717538  0.5670142571082585   T   T   T
  0.4141520646759597  0.9160515836160118  0.4767130635543321   T   T   T
  0.1631285750573339  0.1688429866280825  0.4745473516167296   T   T   T
  0.4118429968968942  0.6668677658772427  0.4799502422889922   T   T   T
  0.4284374107828347  0.5347490740516297  0.6296874526909811   T   T   T
  0.4919136553641233  0.2594956505032139  0.5699763606661167   T   T   T
  0.0833333333333357  0.0833333333333357  0.3817991009012260   F   F   F
 
  0.00000000E+00  0.00000000E+00  0.00000000E+00
  0.00000000E+00  0.00000000E+00  0.00000000E+00
  0.00000000E+00  0.00000000E+00  0.00000000E+00
  0.00000000E+00  0.00000000E+00  0.00000000E+00
  0.00000000E+00  0.00000000E+00  0.00000000E+00
  0.00000000E+00  0.00000000E+00  0.00000000E+00
  0.00000000E+00  0.00000000E+00  0.00000000E+00
  0.00000000E+00  0.00000000E+00  0.00000000E+00
  0.00000000E+00  0.00000000E+00  0.00000000E+00
  0.00000000E+00  0.00000000E+00  0.00000000E+00
  0.00000000E+00  0.00000000E+00  0.00000000E+00
  0.00000000E+00  0.00000000E+00  0.00000000E+00
  0.00000000E+00  0.00000000E+00  0.00000000E+00
  0.00000000E+00  0.00000000E+00  0.00000000E+00
  0.00000000E+00  0.00000000E+00  0.00000000E+00
  0.00000000E+00  0.00000000E+00  0.00000000E+00
  0.00000000E+00  0.00000000E+00  0.00000000E+00
  0.00000000E+00  0.00000000E+00  0.00000000E+00
  0.00000000E+00  0.00000000E+00  0.00000000E+00
  0.00000000E+00  0.00000000E+00  0.00000000E+00
  0.00000000E+00  0.00000000E+00  0.00000000E+00
  0.00000000E+00  0.00000000E+00  0.00000000E+00
  0.00000000E+00  0.00000000E+00  0.00000000E+00
  0.00000000E+00  0.00000000E+00  0.00000000E+00
  0.00000000E+00  0.00000000E+00  0.00000000E+00
  0.00000000E+00  0.00000000E+00  0.00000000E+00
  0.00000000E+00  0.00000000E+00  0.00000000E+00
  0.00000000E+00  0.00000000E+00  0.00000000E+00
  0.00000000E+00  0.00000000E+00  0.00000000E+00
  0.00000000E+00  0.00000000E+00  0.00000000E+00
  0.00000000E+00  0.00000000E+00  0.00000000E+00
  0.00000000E+00  0.00000000E+00  0.00000000E+00
  0.00000000E+00  0.00000000E+00  0.00000000E+00
  0.00000000E+00  0.00000000E+00  0.00000000E+00
  0.00000000E+00  0.00000000E+00  0.00000000E+00
  0.00000000E+00  0.00000000E+00  0.00000000E+00
  0.00000000E+00  0.00000000E+00  0.00000000E+00
  0.00000000E+00  0.00000000E+00  0.00000000E+00
  0.00000000E+00  0.00000000E+00  0.00000000E+00
  0.00000000E+00  0.00000000E+00  0.00000000E+00
  0.00000000E+00  0.00000000E+00  0.00000000E+00
  0.00000000E+00  0.00000000E+00  0.00000000E+00
  0.00000000E+00  0.00000000E+00  0.00000000E+00
  0.00000000E+00  0.00000000E+00  0.00000000E+00
  0.00000000E+00  0.00000000E+00  0.00000000E+00
  0.00000000E+00  0.00000000E+00  0.00000000E+00
  0.00000000E+00  0.00000000E+00  0.00000000E+00
  0.00000000E+00  0.00000000E+00  0.00000000E+00
  0.00000000E+00  0.00000000E+00  0.00000000E+00
  0.00000000E+00  0.00000000E+00  0.00000000E+00
  0.00000000E+00  0.00000000E+00  0.00000000E+00
  0.00000000E+00  0.00000000E+00  0.00000000E+00
  0.00000000E+00  0.00000000E+00  0.00000000E+00
  0.00000000E+00  0.00000000E+00  0.00000000E+00
  0.00000000E+00  0.00000000E+00  0.00000000E+00
  0.00000000E+00  0.00000000E+00  0.00000000E+00
