Au Pd                                   
   1.00000000000000     
    11.0025815152626798    0.0000000000000000    0.0000000000000000
     5.5012907576313399    9.5285150994265617    0.0000000000000000
     0.0000000000000000    0.0000000000000000   24.4917850942952882
   Au   Pd
    24    24
Direct
  0.0836585041782124  0.0797502223473929  0.3972498274856799
  0.6641813172964824  0.6686841104070587  0.4993300702201380
  0.8316986319247233  0.5838200748831494  0.3944037668201992
  0.7479993626241378  0.2541556145231166  0.6059443310413947
  0.6647284230852597  0.4176607352955695  0.4988922849406245
  0.7482073791513875  0.0010078921484428  0.6047738160771043
  0.5819283271742977  0.5842746108344331  0.3933710625756085
  0.4967020047411302  0.2539502169153255  0.6015752544322021
  0.5847724178512408  0.3294690426344719  0.3974831926663935
  0.4194407803961571  0.1649560909027497  0.5002617902292609
  0.5848132146632998  0.0792361318778624  0.4000093479317113
  0.3319507358480146  0.5840431979353947  0.3966129887033063
  0.1677881839021430  0.4179216043066413  0.4988804767469838
  0.7463001680349201  0.7511121450423248  0.6062571758173394
  0.0831148840454617  0.5841865985037630  0.3956116336729928
  0.1673246921663825  0.1649936255809190  0.4997843185530821
  0.9161234013796943  0.6675883063229867  0.5006725689157376
  0.0008887700150372  0.4996712707846498  0.6025778987610128
  0.9174363253440244  0.9165033255912237  0.5021904432202106
  0.0837659785154101  0.3310351135509254  0.3954733794874537
  0.0011246833853814  0.2511121682894670  0.6038285714207609
  0.0046765268604015  0.7485353947701417  0.6059862277138139
  0.9162472293923698  0.1671906137036174  0.5009429989860071
  0.0054351202568110 -0.0015118162970545  0.6061530532062219
  0.9163821599588946  0.4174759781647051  0.4988528632911882
  0.8332616041078351  0.3317289716862449  0.4019372047056790
  0.4163329460130041  0.9151149051423800  0.5002132177371564
  0.6661028294895159  0.1669701372996084  0.5018595425446164
  0.8337469220087650  0.0809957597531944  0.4046549904065359
  0.4981842129035678  0.7512980995751972  0.5955595315316932
  0.7484330181961628  0.5020392027570001  0.5962704875039248
  0.8329299395784636  0.8332975556656049  0.4046699566056661
  0.5819971247799663  0.8329940731851314  0.4035857047043983
  0.2534140236277104 -0.0013068046544938  0.5967978552890311
  0.4134761449358136  0.6682154159777075  0.4974461919680728
  0.4169699336851103  0.4183144176876900  0.4980037687415114
  0.4981414179564794 -0.0000214670368339  0.5980304562110316
  0.0827483103936945  0.8332880917573365  0.4039512442744564
  0.6656307469425374  0.9172493761367813  0.5022653932794692
  0.1681343399901604  0.9155277772939960  0.5002579388455168
  0.3333990998900203  0.8340126731142130  0.4035887697456735
  0.2513184760010507  0.5021504106037514  0.5951905136932918
  0.1683777808853235  0.6669457645438105  0.4987205987872125
  0.2510652992361632  0.2499119401006871  0.5971499989299518
  0.3345860602377486  0.0802319631267938  0.4026877939787122
  0.3337230974505940  0.3308414300504043  0.4014336602787597
  0.4981305167100810  0.5040043088789036  0.5942851899220067
  0.2532069327889572  0.7493737283356141  0.5943206473992048
 
  0.00000000E+00  0.00000000E+00  0.00000000E+00
  0.00000000E+00  0.00000000E+00  0.00000000E+00
  0.00000000E+00  0.00000000E+00  0.00000000E+00
  0.00000000E+00  0.00000000E+00  0.00000000E+00
  0.00000000E+00  0.00000000E+00  0.00000000E+00
  0.00000000E+00  0.00000000E+00  0.00000000E+00
  0.00000000E+00  0.00000000E+00  0.00000000E+00
  0.00000000E+00  0.00000000E+00  0.00000000E+00
  0.00000000E+00  0.00000000E+00  0.00000000E+00
  0.00000000E+00  0.00000000E+00  0.00000000E+00
  0.00000000E+00  0.00000000E+00  0.00000000E+00
  0.00000000E+00  0.00000000E+00  0.00000000E+00
  0.00000000E+00  0.00000000E+00  0.00000000E+00
  0.00000000E+00  0.00000000E+00  0.00000000E+00
  0.00000000E+00  0.00000000E+00  0.00000000E+00
  0.00000000E+00  0.00000000E+00  0.00000000E+00
  0.00000000E+00  0.00000000E+00  0.00000000E+00
  0.00000000E+00  0.00000000E+00  0.00000000E+00
  0.00000000E+00  0.00000000E+00  0.00000000E+00
  0.00000000E+00  0.00000000E+00  0.00000000E+00
  0.00000000E+00  0.00000000E+00  0.00000000E+00
  0.00000000E+00  0.00000000E+00  0.00000000E+00
  0.00000000E+00  0.00000000E+00  0.00000000E+00
  0.00000000E+00  0.00000000E+00  0.00000000E+00
  0.00000000E+00  0.00000000E+00  0.00000000E+00
  0.00000000E+00  0.00000000E+00  0.00000000E+00
  0.00000000E+00  0.00000000E+00  0.00000000E+00
  0.00000000E+00  0.00000000E+00  0.00000000E+00
  0.00000000E+00  0.00000000E+00  0.00000000E+00
  0.00000000E+00  0.00000000E+00  0.00000000E+00
  0.00000000E+00  0.00000000E+00  0.00000000E+00
  0.00000000E+00  0.00000000E+00  0.00000000E+00
  0.00000000E+00  0.00000000E+00  0.00000000E+00
  0.00000000E+00  0.00000000E+00  0.00000000E+00
  0.00000000E+00  0.00000000E+00  0.00000000E+00
  0.00000000E+00  0.00000000E+00  0.00000000E+00
  0.00000000E+00  0.00000000E+00  0.00000000E+00
  0.00000000E+00  0.00000000E+00  0.00000000E+00
  0.00000000E+00  0.00000000E+00  0.00000000E+00
  0.00000000E+00  0.00000000E+00  0.00000000E+00
  0.00000000E+00  0.00000000E+00  0.00000000E+00
  0.00000000E+00  0.00000000E+00  0.00000000E+00
  0.00000000E+00  0.00000000E+00  0.00000000E+00
  0.00000000E+00  0.00000000E+00  0.00000000E+00
  0.00000000E+00  0.00000000E+00  0.00000000E+00
  0.00000000E+00  0.00000000E+00  0.00000000E+00
  0.00000000E+00  0.00000000E+00  0.00000000E+00
  0.00000000E+00  0.00000000E+00  0.00000000E+00
