Au Pd                                   
   1.00000000000000     
    11.0025815152626798    0.0000000000000000    0.0000000000000000
     5.5012907576313399    9.5285150994265617    0.0000000000000000
     0.0000000000000000    0.0000000000000000   24.4917850942952882
   Au   Pd
    24    24
Direct
  0.0823211576886782  0.0844411660863172  0.3916136770915996
  0.4994750481267252  0.0012300610666614  0.6040394210342400
  0.5839257642864892  0.8314725704533804  0.3949972137860108
  0.5822301850041468  0.0873709051210679  0.3956862496651445
  0.6674281637136933  0.9157321504130007  0.5006679644626654
  0.1652292376737946  0.9155040415926846  0.4998985981327742
  0.3345599675753605  0.8295135810455224  0.3917269411452613
  0.2523354647979390  0.4997499593805307  0.6060875580742704
  0.4177424610719079  0.9163213529778030  0.4997888489900720
  0.6662693949107282  0.1655139487246467  0.5001411660080920
  0.4125504823552890  0.4168426164371651  0.5024396699753683
  0.1667076713051920  0.1690492109521316  0.5001780215557480
  0.8316881287426811  0.3331884956525886  0.3963170305929028
 -0.0009518687568343  0.7546075082016123  0.6036719082517934
  0.9170218128368623  0.1663086548365248  0.4993953907077969
  0.8355014240271854  0.8330244428313952  0.3962421039120618
  0.7485126792185297  0.5008815323649791  0.6022650718098359
  0.8352791910914268  0.5806414828316350  0.3990288600084896
  0.3323667591741832  0.0864712557178026  0.3953628045165303
  0.9184397166662117  0.6645788115904702  0.5021798551761898
  0.4163334000370699  0.6667130175492870  0.4998093593995016
  0.0846339243736531  0.8302513202980887  0.3984507057512461
  0.6674103030642567  0.4179834149198271  0.5005205009021456
  0.0006807942960820  0.4978794248942494  0.6053082543394113
  0.4990286274927683  0.7510134930490258  0.5973323566183789
  0.8328915239942584  0.0839839096857128  0.4014267772334829
  0.6676724359000173  0.6664176817234694  0.4997995761937384
  0.7498400406038026  0.0020270948094962  0.5979406753170208
  0.4998838469630390  0.5009032023194020  0.5993064185543351
  0.7502571945795056  0.2487940177598272  0.5986268988856652
  0.2511548362384549  0.7519025183918019  0.5982631133559496
  0.5014329425512256  0.2498140163320799  0.5990440270846201
 -0.0006863801110772  0.0019892130643234  0.5972456771369642
  0.0842266433183761  0.3337577206605867  0.4046175203499786
  0.9169504288363429  0.4177177253991162  0.5012043982406247
  0.0004020507412495  0.2482846999012178  0.5975637468192695
  0.0859340939869609  0.5802569339355886  0.4063417012476516
  0.9173854760140908  0.9146723192868607  0.5001320462702611
  0.5830270487249631  0.5820991164073834  0.4018271484920433
  0.2487808641424946  0.0008134390719666  0.5973561977699123
  0.1657939322141469  0.4165618075864904  0.5036756845979692
  0.2508951043239733  0.2490723065875658  0.5984195144838406
  0.3342616770662671  0.5802633200205216  0.4038895620092554
  0.1654710573034029  0.6665153915473206  0.5024773984600391
  0.4160793983404029  0.1665009289791987  0.5006067023729852
  0.5811996348600406  0.3348858104312894  0.4030160203361896
  0.3315689908562951  0.3352989371450889  0.4055755386221244
  0.7488572677777489  0.7511834699652939  0.5984941242585511
 
  0.00000000E+00  0.00000000E+00  0.00000000E+00
  0.00000000E+00  0.00000000E+00  0.00000000E+00
  0.00000000E+00  0.00000000E+00  0.00000000E+00
  0.00000000E+00  0.00000000E+00  0.00000000E+00
  0.00000000E+00  0.00000000E+00  0.00000000E+00
  0.00000000E+00  0.00000000E+00  0.00000000E+00
  0.00000000E+00  0.00000000E+00  0.00000000E+00
  0.00000000E+00  0.00000000E+00  0.00000000E+00
  0.00000000E+00  0.00000000E+00  0.00000000E+00
  0.00000000E+00  0.00000000E+00  0.00000000E+00
  0.00000000E+00  0.00000000E+00  0.00000000E+00
  0.00000000E+00  0.00000000E+00  0.00000000E+00
  0.00000000E+00  0.00000000E+00  0.00000000E+00
  0.00000000E+00  0.00000000E+00  0.00000000E+00
  0.00000000E+00  0.00000000E+00  0.00000000E+00
  0.00000000E+00  0.00000000E+00  0.00000000E+00
  0.00000000E+00  0.00000000E+00  0.00000000E+00
  0.00000000E+00  0.00000000E+00  0.00000000E+00
  0.00000000E+00  0.00000000E+00  0.00000000E+00
  0.00000000E+00  0.00000000E+00  0.00000000E+00
  0.00000000E+00  0.00000000E+00  0.00000000E+00
  0.00000000E+00  0.00000000E+00  0.00000000E+00
  0.00000000E+00  0.00000000E+00  0.00000000E+00
  0.00000000E+00  0.00000000E+00  0.00000000E+00
  0.00000000E+00  0.00000000E+00  0.00000000E+00
  0.00000000E+00  0.00000000E+00  0.00000000E+00
  0.00000000E+00  0.00000000E+00  0.00000000E+00
  0.00000000E+00  0.00000000E+00  0.00000000E+00
  0.00000000E+00  0.00000000E+00  0.00000000E+00
  0.00000000E+00  0.00000000E+00  0.00000000E+00
  0.00000000E+00  0.00000000E+00  0.00000000E+00
  0.00000000E+00  0.00000000E+00  0.00000000E+00
  0.00000000E+00  0.00000000E+00  0.00000000E+00
  0.00000000E+00  0.00000000E+00  0.00000000E+00
  0.00000000E+00  0.00000000E+00  0.00000000E+00
  0.00000000E+00  0.00000000E+00  0.00000000E+00
  0.00000000E+00  0.00000000E+00  0.00000000E+00
  0.00000000E+00  0.00000000E+00  0.00000000E+00
  0.00000000E+00  0.00000000E+00  0.00000000E+00
  0.00000000E+00  0.00000000E+00  0.00000000E+00
  0.00000000E+00  0.00000000E+00  0.00000000E+00
  0.00000000E+00  0.00000000E+00  0.00000000E+00
  0.00000000E+00  0.00000000E+00  0.00000000E+00
  0.00000000E+00  0.00000000E+00  0.00000000E+00
  0.00000000E+00  0.00000000E+00  0.00000000E+00
  0.00000000E+00  0.00000000E+00  0.00000000E+00
  0.00000000E+00  0.00000000E+00  0.00000000E+00
  0.00000000E+00  0.00000000E+00  0.00000000E+00
