Au Pd                                   
   1.00000000000000     
    11.0025815152626798    0.0000000000000000    0.0000000000000000
     5.5012907576313399    9.5285150994265617    0.0000000000000000
     0.0000000000000000    0.0000000000000000   24.4917850942952882
   Au   Pd
    24    24
Direct
  0.0843408204044476  0.0845564963562019  0.3960187658282043
  0.5799132427315917  0.0830128240048087  0.3965104230274393
  0.4168040704186937  0.1641065766952560  0.5015103229431840
  0.5801661490509704  0.3348569689258556  0.3979552340520217
  0.4991641460881902  0.2481877994973361  0.6056516556735568
  0.5828294077161571  0.5831886505576945  0.3933221871957027
  0.4158931853501180  0.6676177368099280  0.5018225964506942
  0.3352527720157464  0.8337252625960103  0.3976219446369945
  0.4992466146181332  0.4999347950263179  0.6071046580187880
  0.6679727698240809  0.1638435448890434  0.5002821283932323
  0.6675894776421649  0.4164305886138877  0.5006784161075009
  0.8339303543350094  0.5820471675121192  0.3971697611242747
  0.6654607357821792  0.6687824724750554  0.5008657000506082
  0.7533019163972626  0.4981986385370026  0.6047408084078372
  0.8328198067099312  0.8325052625807298  0.3977657894886357
  0.8327383429063229  0.0844912011453765  0.3932797932347278
  0.1669311181019755  0.6676428236890167  0.5023010462100493
  0.2467703776339930  0.7542342329216960  0.6053704195436342
  0.7491899948280941  0.7534035014580497  0.6046542454055858
  0.1670877966780578  0.4146366397535856  0.5021273530329743
  0.9194473120236057  0.1651190135211929  0.4990020283291528
  0.0852575135052677  0.3334407362732980  0.3978507768668666
  0.9154996961259504  0.6680870032695454  0.5015612740283886
  0.0853090994852332  0.8307196866015852  0.3977972779647144
 -0.0015175021225686  0.0016987513928882  0.5951299827817821
  0.9173453088424859  0.4164020899427622  0.5000833178869988
  0.7516064476458799  0.2489227009662816  0.5980573799793363
  0.0025748820916131  0.2482044682108922  0.5959872220821427
  0.8329754436813102  0.3337712990103047  0.4015008865976918
  0.7513175865468451 -0.0001531379767821  0.5961502101016356
  0.0849459421137617  0.5823709528478418  0.4035954847612861
  0.4987071824127045  0.7521028116099869  0.5987238647462675
  0.4144976651793248  0.9177090082278021  0.4999683575771925
  0.3335802552704853  0.5821204752132831  0.4053301663450181
  0.2477981022184683  0.2498526743961816  0.5988618110603797
  0.9174968731914404  0.9162332849927778  0.4982716056711417
 -0.0007092614332402  0.7518966712971091  0.5984627273936880
  0.4182428901214822  0.4151506466411621  0.5043199079806574
  0.3342845947839909  0.0831398031156630  0.4033473827807381
  0.4984455444472353 -0.0000036337846072  0.5974659920245073
  0.1661752693703394  0.1655105450039341  0.4991278422446177
  0.2502394974657035  0.0010454362155524  0.5954290345521484
  0.6663234909081535  0.9163460973336039  0.5000146629325162
  0.1674414585271438  0.9178224440209238  0.4991498967441801
  0.3327940988834752  0.3346442095883541  0.4054248480519907
  0.2474971118826481  0.5004564534633670  0.6006401093269848
  0.5833126165509267  0.8330302471064557  0.4030484618039669
  0.0017077810472148  0.4989560774536682  0.5989442385583632
 
  0.00000000E+00  0.00000000E+00  0.00000000E+00
  0.00000000E+00  0.00000000E+00  0.00000000E+00
  0.00000000E+00  0.00000000E+00  0.00000000E+00
  0.00000000E+00  0.00000000E+00  0.00000000E+00
  0.00000000E+00  0.00000000E+00  0.00000000E+00
  0.00000000E+00  0.00000000E+00  0.00000000E+00
  0.00000000E+00  0.00000000E+00  0.00000000E+00
  0.00000000E+00  0.00000000E+00  0.00000000E+00
  0.00000000E+00  0.00000000E+00  0.00000000E+00
  0.00000000E+00  0.00000000E+00  0.00000000E+00
  0.00000000E+00  0.00000000E+00  0.00000000E+00
  0.00000000E+00  0.00000000E+00  0.00000000E+00
  0.00000000E+00  0.00000000E+00  0.00000000E+00
  0.00000000E+00  0.00000000E+00  0.00000000E+00
  0.00000000E+00  0.00000000E+00  0.00000000E+00
  0.00000000E+00  0.00000000E+00  0.00000000E+00
  0.00000000E+00  0.00000000E+00  0.00000000E+00
  0.00000000E+00  0.00000000E+00  0.00000000E+00
  0.00000000E+00  0.00000000E+00  0.00000000E+00
  0.00000000E+00  0.00000000E+00  0.00000000E+00
  0.00000000E+00  0.00000000E+00  0.00000000E+00
  0.00000000E+00  0.00000000E+00  0.00000000E+00
  0.00000000E+00  0.00000000E+00  0.00000000E+00
  0.00000000E+00  0.00000000E+00  0.00000000E+00
  0.00000000E+00  0.00000000E+00  0.00000000E+00
  0.00000000E+00  0.00000000E+00  0.00000000E+00
  0.00000000E+00  0.00000000E+00  0.00000000E+00
  0.00000000E+00  0.00000000E+00  0.00000000E+00
  0.00000000E+00  0.00000000E+00  0.00000000E+00
  0.00000000E+00  0.00000000E+00  0.00000000E+00
  0.00000000E+00  0.00000000E+00  0.00000000E+00
  0.00000000E+00  0.00000000E+00  0.00000000E+00
  0.00000000E+00  0.00000000E+00  0.00000000E+00
  0.00000000E+00  0.00000000E+00  0.00000000E+00
  0.00000000E+00  0.00000000E+00  0.00000000E+00
  0.00000000E+00  0.00000000E+00  0.00000000E+00
  0.00000000E+00  0.00000000E+00  0.00000000E+00
  0.00000000E+00  0.00000000E+00  0.00000000E+00
  0.00000000E+00  0.00000000E+00  0.00000000E+00
  0.00000000E+00  0.00000000E+00  0.00000000E+00
  0.00000000E+00  0.00000000E+00  0.00000000E+00
  0.00000000E+00  0.00000000E+00  0.00000000E+00
  0.00000000E+00  0.00000000E+00  0.00000000E+00
  0.00000000E+00  0.00000000E+00  0.00000000E+00
  0.00000000E+00  0.00000000E+00  0.00000000E+00
  0.00000000E+00  0.00000000E+00  0.00000000E+00
  0.00000000E+00  0.00000000E+00  0.00000000E+00
  0.00000000E+00  0.00000000E+00  0.00000000E+00
