Au Pd                                   
   1.00000000000000     
    11.0025815152626798    0.0000000000000000    0.0000000000000000
     5.5012907576313399    9.5285150994265617    0.0000000000000000
     0.0000000000000000    0.0000000000000000   24.4917850942952882
   Au   Pd
    24    24
Selective dynamics
Direct
  0.0833333333333357  0.0833333333333357  0.4083001692812189   F   F   F
  0.0041174380633277  0.2488012999596992  0.6119617721294094   T   T   T
  0.0833333333333357  0.3333333333333357  0.4083001692812189   F   F   F
  0.1627562554871101  0.4174087636883058  0.5080937047233418   T   T   T
  0.9160339320238926  0.1690399880963027  0.5105925358095351   T   T   T
  0.2478493423853400  0.7510106007047209  0.6149206365725250   T   T   T
  0.1652902195169556  0.6662656461869113  0.5069321603487577   T   T   T
  0.3333333333333357  0.8333333333333357  0.4083001692812189   F   F   F
  0.8333333333333357  0.8333333333333357  0.4083001692812189   F   F   F
  0.7496886545742693  0.5029079627079518  0.6100475367704467   T   T   T
  0.8333333333333357  0.5833333333333357  0.4083001692812189   F   F   F
  0.7494386052313418  0.2476690722608365  0.6149984206955584   T   T   T
  0.9166678317731404  0.9156508246065431  0.5089250361142231   T   T   T
  0.6671924182341717  0.1669035711785178  0.5109939547796631   T   T   T
  0.4171679478662788  0.9161635628845362  0.5082502343213693   T   T   T
  0.4981123043801885  0.4997036030618782  0.6141631346004450   T   T   T
  0.4211334558977842  0.6635094658553231  0.5081592200593066   T   T   T
  0.4162523394501989  0.4167542847739083  0.5088917262799142   T   T   T
  0.5833333333333357  0.3333333333333357  0.4083001692812189   F   F   F
  0.4134242321136504  0.1669709051039102  0.5084066709868369   T   T   T
  0.5833333333333357  0.0833333333333357  0.4083001692812189   F   F   F
  0.6672992016397465  0.9124049251444009  0.5098349968404298   T   T   T
  0.1667156124015344  0.9168920266098479  0.5112473934875990   T   T   T
  0.8333333333333357  0.3333333333333357  0.4083001692812189   F   F   F
  0.5833333333333357  0.5833333333333357  0.4083001692812189   F   F   F
  0.4985904424340720  0.2482002849969771  0.6076220612213570   T   T   T
 -0.0009744037166219  0.7490919039815147  0.6059801599762561   T   T   T
  0.4997421520297985 -0.0002495934666514  0.6071922254777039   T   T   T
  0.2482616585060549  0.4993347282954740  0.6068600510714331   T   T   T
  0.1646982416377607  0.1679280681916064  0.5095354162977765   T   T   T
  0.2521122662995111 -0.0001210520112359  0.6072577620462102   T   T   T
  0.3333333333333357  0.3333333333333357  0.4083001692812189   F   F   F
  0.0833333333333357  0.8333333333333357  0.4083001692812189   F   F   F
  0.3333333333333357  0.0833333333333357  0.4083001692812189   F   F   F
  0.0009997380161945  0.5011133609682643  0.6059346335580565   T   T   T
  0.0833333333333357  0.5833333333333357  0.4083001692812189   F   F   F
  0.9155957966457259  0.6650422033993741  0.5082602284471954   T   T   T
  0.4993572906994984  0.7518106628490114  0.6057407764600817   T   T   T
  0.8333333333333357  0.0833333333333357  0.4083001692812189   F   F   F
  0.7502338072934812 -0.0025318503763866  0.6078676312319297   T   T   T
  0.6674822185627103  0.4172847008090883  0.5099750491679146   T   T   T
  0.9145962200265909  0.4181685268230735  0.5104448035254533   T   T   T
  0.6698217318766372  0.6624839291982952  0.5075916978547490   T   T   T
 -0.0007269288141764 -0.0006716455403157  0.6085762120691632   T   T   T
  0.2511593352939575  0.2501225529029468  0.6063971616674043   T   T   T
  0.3333333333333357  0.5833333333333357  0.4083001692812189   F   F   F
  0.5833333333333357  0.8333333333333357  0.4083001692812189   F   F   F
  0.7509056567470833  0.7495938056591599  0.6054568182050840   T   T   T
 
  0.00000000E+00  0.00000000E+00  0.00000000E+00
  0.00000000E+00  0.00000000E+00  0.00000000E+00
  0.00000000E+00  0.00000000E+00  0.00000000E+00
  0.00000000E+00  0.00000000E+00  0.00000000E+00
  0.00000000E+00  0.00000000E+00  0.00000000E+00
  0.00000000E+00  0.00000000E+00  0.00000000E+00
  0.00000000E+00  0.00000000E+00  0.00000000E+00
  0.00000000E+00  0.00000000E+00  0.00000000E+00
  0.00000000E+00  0.00000000E+00  0.00000000E+00
  0.00000000E+00  0.00000000E+00  0.00000000E+00
  0.00000000E+00  0.00000000E+00  0.00000000E+00
  0.00000000E+00  0.00000000E+00  0.00000000E+00
  0.00000000E+00  0.00000000E+00  0.00000000E+00
  0.00000000E+00  0.00000000E+00  0.00000000E+00
  0.00000000E+00  0.00000000E+00  0.00000000E+00
  0.00000000E+00  0.00000000E+00  0.00000000E+00
  0.00000000E+00  0.00000000E+00  0.00000000E+00
  0.00000000E+00  0.00000000E+00  0.00000000E+00
  0.00000000E+00  0.00000000E+00  0.00000000E+00
  0.00000000E+00  0.00000000E+00  0.00000000E+00
  0.00000000E+00  0.00000000E+00  0.00000000E+00
  0.00000000E+00  0.00000000E+00  0.00000000E+00
  0.00000000E+00  0.00000000E+00  0.00000000E+00
  0.00000000E+00  0.00000000E+00  0.00000000E+00
  0.00000000E+00  0.00000000E+00  0.00000000E+00
  0.00000000E+00  0.00000000E+00  0.00000000E+00
  0.00000000E+00  0.00000000E+00  0.00000000E+00
  0.00000000E+00  0.00000000E+00  0.00000000E+00
  0.00000000E+00  0.00000000E+00  0.00000000E+00
  0.00000000E+00  0.00000000E+00  0.00000000E+00
  0.00000000E+00  0.00000000E+00  0.00000000E+00
  0.00000000E+00  0.00000000E+00  0.00000000E+00
  0.00000000E+00  0.00000000E+00  0.00000000E+00
  0.00000000E+00  0.00000000E+00  0.00000000E+00
  0.00000000E+00  0.00000000E+00  0.00000000E+00
  0.00000000E+00  0.00000000E+00  0.00000000E+00
  0.00000000E+00  0.00000000E+00  0.00000000E+00
  0.00000000E+00  0.00000000E+00  0.00000000E+00
  0.00000000E+00  0.00000000E+00  0.00000000E+00
  0.00000000E+00  0.00000000E+00  0.00000000E+00
  0.00000000E+00  0.00000000E+00  0.00000000E+00
  0.00000000E+00  0.00000000E+00  0.00000000E+00
  0.00000000E+00  0.00000000E+00  0.00000000E+00
  0.00000000E+00  0.00000000E+00  0.00000000E+00
  0.00000000E+00  0.00000000E+00  0.00000000E+00
  0.00000000E+00  0.00000000E+00  0.00000000E+00
  0.00000000E+00  0.00000000E+00  0.00000000E+00
  0.00000000E+00  0.00000000E+00  0.00000000E+00
