Au  O Pd                                
   1.00000000000000     
    11.0025815152626798    0.0000000000000000    0.0000000000000000
     5.5012907576313399    9.5285150994265617    0.0000000000000000
     0.0000000000000000    0.0000000000000000   26.1917850942952910
   Au   O    Pd
    24     8    24
Selective dynamics
Direct
  0.0833333333333357  0.0833333333333357  0.3817991009012260   F   F   F
  0.7570645661466467  0.7524483620770712  0.6180303069745554   T   T   T
  0.0833333333333357  0.8333333333333357  0.3817991009012260   F   F   F
  0.6780779170554015  0.8981501758616663  0.4734924202795194   T   T   T
  0.8333333333333357  0.5833333333333357  0.3817991009012260   F   F   F
  0.7693425618673830  0.9692083741618041  0.5656116898106209   T   T   T
  0.9189295628432770  0.4110746561497214  0.4754172937797080   T   T   T
  0.8333333333333357  0.0833333333333357  0.3817991009012260   F   F   F
  0.0833333333333357  0.5833333333333357  0.3817991009012260   F   F   F
  0.9079410082430663  0.6578304012500685  0.5193244513151893   T   T   T
  0.5255052427376498  0.7420292802987284  0.5620836694181917   T   T   T
  0.9219582238291777  0.9033096962766645  0.4733830265154248   T   T   T
  0.4241674972927137  0.9036633288361567  0.4723188617176458   T   T   T
  0.5032031107796396  0.4920137840949912  0.5678420292443401   T   T   T
  0.3333333333333357  0.0833333333333357  0.3817991009012260   F   F   F
  0.1683172085246704  0.1596085664915401  0.4749112554278960   T   T   T
  0.5833333333333357  0.5833333333333357  0.3817991009012260   F   F   F
  0.5042779052544492  0.2303762805155176  0.5719958480812637   T   T   T
  0.1606722548594211  0.4217305833565703  0.4752563449403527   T   T   T
  0.4195742910568753  0.4115984541090616  0.4765341047406793   T   T   T
  0.4224998885219472  0.1597299644216798  0.4774760828862835   T   T   T
  0.3333333333333357  0.5833333333333357  0.3817991009012260   F   F   F
  0.1647040471189357  0.6645907997784161  0.4908085908745768   T   T   T
  0.5833333333333357  0.0833333333333357  0.3817991009012260   F   F   F
  0.1175709235039303  0.2902002607287538  0.6174222765638862   T   T   T
  0.1318516966926994  0.5492607954762494  0.6359776440186702   T   T   T
  0.0916076506880020  0.8551208559712121  0.6202326103072896   T   T   T
  0.3443159798073847  0.8418922277472548  0.6121332158332986   T   T   T
  0.8495044445684149  0.3136922367077957  0.6090591557473317   T   T   T
  0.6060537117587915  0.2970780980936489  0.6194549566626926   T   T   T
  0.5651563914332608  0.9166237650195822  0.6355011435152444   T   T   T
  0.6137770904121624  0.5722686571307484  0.6149028144410047   T   T   T
  0.5833333333333357  0.8333333333333357  0.3817991009012260   F   F   F
  0.5833333333333357  0.3333333333333357  0.3817991009012260   F   F   F
  0.2574045011280166  0.2459415587471580  0.5638699526045504   T   T   T
  0.3333333333333357  0.3333333333333357  0.3817991009012260   F   F   F
  0.2624201300780006  0.7353559787597305  0.5786305518281941   T   T   T
  0.2598490605684117  0.9939814578127558  0.5622456083847162   T   T   T
  0.4201759414803720  0.6574229471582778  0.4768543138437232   T   T   T
  0.0040588572548311  0.7403885628175405  0.6066952352458244   T   T   T
  0.9928035352973387  0.5016884077795738  0.6092069670118485   T   T   T
  0.3333333333333357  0.8333333333333357  0.3817991009012260   F   F   F
  0.0201932591531405  0.2288913081753794  0.5673175078113077   T   T   T
  0.6727354907478441  0.1584741773220493  0.4769145692222443   T   T   T
  0.0833333333333357  0.3333333333333357  0.3817991009012260   F   F   F
  0.8333333333333357  0.3333333333333357  0.3817991009012260   F   F   F
  0.6721889355529956  0.4068312087055550  0.4733570207444110   T   T   T
  0.7634688749341236  0.2236393225148119  0.5690156633133970   T   T   T
  0.0102326738266815  0.9856545701876136  0.5620321971144341   T   T   T
  0.6762175922041141  0.6537368898065585  0.4743325983220745   T   T   T
  0.7758962188997406  0.4885562754028991  0.5679573151372593   T   T   T
  0.8333333333333357  0.8333333333333357  0.3817991009012260   F   F   F
  0.9193909055353445  0.1585371163407009  0.4784708872133684   T   T   T
  0.1722309965380072  0.9056316958555857  0.4733722025541034   T   T   T
  0.5071900924462847  0.9919896337197862  0.5676420099870839   T   T   T
  0.2590881637349454  0.4882200176714520  0.5751508052993641   T   T   T
 
  0.00000000E+00  0.00000000E+00  0.00000000E+00
  0.00000000E+00  0.00000000E+00  0.00000000E+00
  0.00000000E+00  0.00000000E+00  0.00000000E+00
  0.00000000E+00  0.00000000E+00  0.00000000E+00
  0.00000000E+00  0.00000000E+00  0.00000000E+00
  0.00000000E+00  0.00000000E+00  0.00000000E+00
  0.00000000E+00  0.00000000E+00  0.00000000E+00
  0.00000000E+00  0.00000000E+00  0.00000000E+00
  0.00000000E+00  0.00000000E+00  0.00000000E+00
  0.00000000E+00  0.00000000E+00  0.00000000E+00
  0.00000000E+00  0.00000000E+00  0.00000000E+00
  0.00000000E+00  0.00000000E+00  0.00000000E+00
  0.00000000E+00  0.00000000E+00  0.00000000E+00
  0.00000000E+00  0.00000000E+00  0.00000000E+00
  0.00000000E+00  0.00000000E+00  0.00000000E+00
  0.00000000E+00  0.00000000E+00  0.00000000E+00
  0.00000000E+00  0.00000000E+00  0.00000000E+00
  0.00000000E+00  0.00000000E+00  0.00000000E+00
  0.00000000E+00  0.00000000E+00  0.00000000E+00
  0.00000000E+00  0.00000000E+00  0.00000000E+00
  0.00000000E+00  0.00000000E+00  0.00000000E+00
  0.00000000E+00  0.00000000E+00  0.00000000E+00
  0.00000000E+00  0.00000000E+00  0.00000000E+00
  0.00000000E+00  0.00000000E+00  0.00000000E+00
  0.00000000E+00  0.00000000E+00  0.00000000E+00
  0.00000000E+00  0.00000000E+00  0.00000000E+00
  0.00000000E+00  0.00000000E+00  0.00000000E+00
  0.00000000E+00  0.00000000E+00  0.00000000E+00
  0.00000000E+00  0.00000000E+00  0.00000000E+00
  0.00000000E+00  0.00000000E+00  0.00000000E+00
  0.00000000E+00  0.00000000E+00  0.00000000E+00
  0.00000000E+00  0.00000000E+00  0.00000000E+00
  0.00000000E+00  0.00000000E+00  0.00000000E+00
  0.00000000E+00  0.00000000E+00  0.00000000E+00
  0.00000000E+00  0.00000000E+00  0.00000000E+00
  0.00000000E+00  0.00000000E+00  0.00000000E+00
  0.00000000E+00  0.00000000E+00  0.00000000E+00
  0.00000000E+00  0.00000000E+00  0.00000000E+00
  0.00000000E+00  0.00000000E+00  0.00000000E+00
  0.00000000E+00  0.00000000E+00  0.00000000E+00
  0.00000000E+00  0.00000000E+00  0.00000000E+00
  0.00000000E+00  0.00000000E+00  0.00000000E+00
  0.00000000E+00  0.00000000E+00  0.00000000E+00
  0.00000000E+00  0.00000000E+00  0.00000000E+00
  0.00000000E+00  0.00000000E+00  0.00000000E+00
  0.00000000E+00  0.00000000E+00  0.00000000E+00
  0.00000000E+00  0.00000000E+00  0.00000000E+00
  0.00000000E+00  0.00000000E+00  0.00000000E+00
  0.00000000E+00  0.00000000E+00  0.00000000E+00
  0.00000000E+00  0.00000000E+00  0.00000000E+00
  0.00000000E+00  0.00000000E+00  0.00000000E+00
  0.00000000E+00  0.00000000E+00  0.00000000E+00
  0.00000000E+00  0.00000000E+00  0.00000000E+00
  0.00000000E+00  0.00000000E+00  0.00000000E+00
  0.00000000E+00  0.00000000E+00  0.00000000E+00
  0.00000000E+00  0.00000000E+00  0.00000000E+00
