Au  O Pd                                
   1.00000000000000     
    11.0025815152626798    0.0000000000000000    0.0000000000000000
     5.5012907576313399    9.5285150994265617    0.0000000000000000
     0.0000000000000000    0.0000000000000000   26.1917850942952910
   Au   O    Pd
    24     8    24
Selective dynamics
Direct
  0.0833333333333357  0.0833333333333357  0.3817991009012260   F   F   F
  0.7580180766357226  0.7512088767214945  0.6181475706214126   T   T   T
  0.0833333333333357  0.8333333333333357  0.3817991009012260   F   F   F
  0.6790480935141561  0.8970880450404184  0.4732209679321020   T   T   T
  0.8333333333333357  0.5833333333333357  0.3817991009012260   F   F   F
  0.7702461122075360 -0.0321142358542586  0.5654979525885466   T   T   T
  0.9193392851528844  0.4106808873462534  0.4757770627191202   T   T   T
  0.8333333333333357  0.0833333333333357  0.3817991009012260   F   F   F
  0.0833333333333357  0.5833333333333357  0.3817991009012260   F   F   F
  0.9084617975350389  0.6575887982212318  0.5195482226666132   T   T   T
  0.5257124351037766  0.7417611103800950  0.5626688378778238   T   T   T
  0.9226883679301470  0.9030443660465460  0.4734145692697822   T   T   T
  0.4247800829472452  0.9031179484684559  0.4723355821464414   T   T   T
  0.5031036384153896  0.4918102540146463  0.5681021305342356   T   T   T
  0.3333333333333357  0.0833333333333357  0.3817991009012260   F   F   F
  0.1686328712890047  0.1594093927648915  0.4748905384443249   T   T   T
  0.5833333333333357  0.5833333333333357  0.3817991009012260   F   F   F
  0.5046690394523786  0.2299293836363655  0.5714356060805841   T   T   T
  0.1606262584417585  0.4221896209091350  0.4749281469047094   T   T   T
  0.4197681967245288  0.4116743598949059  0.4763702368580771   T   T   T
  0.4226431900327385  0.1597231851843016  0.4769988124620837   T   T   T
  0.3333333333333357  0.5833333333333357  0.3817991009012260   F   F   F
  0.1650385247309517  0.6648767042820030  0.4912827629308092   T   T   T
  0.5833333333333357  0.0833333333333357  0.3817991009012260   F   F   F
  0.1187682619816405  0.2898246587398745  0.6173147952960062   T   T   T
  0.1326942839843095  0.5484348577877874  0.6364530403989006   T   T   T
  0.0916041629569434  0.8552604686148259  0.6207026203518468   T   T   T
  0.3443917004563011  0.8426480332663211  0.6124224963471721   T   T   T
  0.8498804834530542  0.3126347209149726  0.6091774667759802   T   T   T
  0.6060787525829390  0.2963350649456206  0.6192750571041706   T   T   T
  0.5657252260139647  0.9158417969876038  0.6344318436345405   T   T   T
  0.6138918282442510  0.5715740751713148  0.6153767184910302   T   T   T
  0.5833333333333357  0.8333333333333357  0.3817991009012260   F   F   F
  0.5833333333333357  0.3333333333333357  0.3817991009012260   F   F   F
  0.2572653946895178  0.2465306115847806  0.5634234574794129   T   T   T
  0.3333333333333357  0.3333333333333357  0.3817991009012260   F   F   F
  0.2627331077894343  0.7355292401913546  0.5792016938149464   T   T   T
  0.2602729034722767 -0.0061906929119300  0.5622272285975930   T   T   T
  0.4205887281402776  0.6571950284229134  0.4772910842275126   T   T   T
  0.0047084470765604  0.7400112651289038  0.6073146748875105   T   T   T
 -0.0063488482299302  0.5012323218180342  0.6093970223079647   T   T   T
  0.3333333333333357  0.8333333333333357  0.3817991009012260   F   F   F
  0.0205116465858369  0.2286477441405909  0.5675648357437471   T   T   T
  0.6731033583151445  0.1577777015375775  0.4767012803443370   T   T   T
  0.0833333333333357  0.3333333333333357  0.3817991009012260   F   F   F
  0.8333333333333357  0.3333333333333357  0.3817991009012260   F   F   F
  0.6725813382125652  0.4062492183230682  0.4735343864857459   T   T   T
  0.7634973481185692  0.2232205136579407  0.5688769309597300   T   T   T
  0.0107427364129624 -0.0148220680678975  0.5622970283393169   T   T   T
  0.6764748145640658  0.6530465114881518  0.4747546491596606   T   T   T
  0.7760528012684899  0.4880773609114102  0.5684420738953148   T   T   T
  0.8333333333333357  0.8333333333333357  0.3817991009012260   F   F   F
  0.9199106985782425  0.1581756783674872  0.4786952282062718   T   T   T
  0.1725950055722455  0.9055049635244312  0.4732764271825288   T   T   T
  0.5077424269731785 -0.0083956518410270  0.5664382033375642   T   T   T
  0.2592815669681924  0.4882128067123168  0.5754267028576514   T   T   T
 
  0.00000000E+00  0.00000000E+00  0.00000000E+00
  0.00000000E+00  0.00000000E+00  0.00000000E+00
  0.00000000E+00  0.00000000E+00  0.00000000E+00
  0.00000000E+00  0.00000000E+00  0.00000000E+00
  0.00000000E+00  0.00000000E+00  0.00000000E+00
  0.00000000E+00  0.00000000E+00  0.00000000E+00
  0.00000000E+00  0.00000000E+00  0.00000000E+00
  0.00000000E+00  0.00000000E+00  0.00000000E+00
  0.00000000E+00  0.00000000E+00  0.00000000E+00
  0.00000000E+00  0.00000000E+00  0.00000000E+00
  0.00000000E+00  0.00000000E+00  0.00000000E+00
  0.00000000E+00  0.00000000E+00  0.00000000E+00
  0.00000000E+00  0.00000000E+00  0.00000000E+00
  0.00000000E+00  0.00000000E+00  0.00000000E+00
  0.00000000E+00  0.00000000E+00  0.00000000E+00
  0.00000000E+00  0.00000000E+00  0.00000000E+00
  0.00000000E+00  0.00000000E+00  0.00000000E+00
  0.00000000E+00  0.00000000E+00  0.00000000E+00
  0.00000000E+00  0.00000000E+00  0.00000000E+00
  0.00000000E+00  0.00000000E+00  0.00000000E+00
  0.00000000E+00  0.00000000E+00  0.00000000E+00
  0.00000000E+00  0.00000000E+00  0.00000000E+00
  0.00000000E+00  0.00000000E+00  0.00000000E+00
  0.00000000E+00  0.00000000E+00  0.00000000E+00
  0.00000000E+00  0.00000000E+00  0.00000000E+00
  0.00000000E+00  0.00000000E+00  0.00000000E+00
  0.00000000E+00  0.00000000E+00  0.00000000E+00
  0.00000000E+00  0.00000000E+00  0.00000000E+00
  0.00000000E+00  0.00000000E+00  0.00000000E+00
  0.00000000E+00  0.00000000E+00  0.00000000E+00
  0.00000000E+00  0.00000000E+00  0.00000000E+00
  0.00000000E+00  0.00000000E+00  0.00000000E+00
  0.00000000E+00  0.00000000E+00  0.00000000E+00
  0.00000000E+00  0.00000000E+00  0.00000000E+00
  0.00000000E+00  0.00000000E+00  0.00000000E+00
  0.00000000E+00  0.00000000E+00  0.00000000E+00
  0.00000000E+00  0.00000000E+00  0.00000000E+00
  0.00000000E+00  0.00000000E+00  0.00000000E+00
  0.00000000E+00  0.00000000E+00  0.00000000E+00
  0.00000000E+00  0.00000000E+00  0.00000000E+00
  0.00000000E+00  0.00000000E+00  0.00000000E+00
  0.00000000E+00  0.00000000E+00  0.00000000E+00
  0.00000000E+00  0.00000000E+00  0.00000000E+00
  0.00000000E+00  0.00000000E+00  0.00000000E+00
  0.00000000E+00  0.00000000E+00  0.00000000E+00
  0.00000000E+00  0.00000000E+00  0.00000000E+00
  0.00000000E+00  0.00000000E+00  0.00000000E+00
  0.00000000E+00  0.00000000E+00  0.00000000E+00
  0.00000000E+00  0.00000000E+00  0.00000000E+00
  0.00000000E+00  0.00000000E+00  0.00000000E+00
  0.00000000E+00  0.00000000E+00  0.00000000E+00
  0.00000000E+00  0.00000000E+00  0.00000000E+00
  0.00000000E+00  0.00000000E+00  0.00000000E+00
  0.00000000E+00  0.00000000E+00  0.00000000E+00
  0.00000000E+00  0.00000000E+00  0.00000000E+00
  0.00000000E+00  0.00000000E+00  0.00000000E+00
