Au Pd                                   
   1.00000000000000     
    11.0025815152626798    0.0000000000000000    0.0000000000000000
     5.5012907576313399    9.5285150994265617    0.0000000000000000
     0.0000000000000000    0.0000000000000000   24.4917850942952882
   Au   Pd
    24    24
Direct
  0.3296759631240663  0.3334991926841006  0.4012073033636285
  0.4168662467315817  0.6651717858718930  0.4985220246016751
  0.5839549798120166  0.3333145707974877  0.3970322451723127
  0.5847182807857406  0.8342360899864363  0.3943674748868064
  0.5835446380715807  0.0821147899597228  0.4000691314224087
  0.4182984558563401  0.9184119698864739  0.4991775198510996
  0.1632220422852571  0.9181949474910521  0.4988514820744617
  0.3313002164978310  0.8374577780313779  0.3917206431383786
  0.2520884274556411  0.5000889180851311  0.6038722672326039
  0.1647989098187750  0.6658739831776630  0.5008614062026079
  0.3316079577740776  0.5838397483792469  0.3943408322540599
  0.2506793039808154  0.2452778321759936  0.6044338021418527
  0.5019081799115110  0.2488632981001876  0.6010269157861469
  0.8348405350349538  0.0841355391893438  0.3984467068459553
  0.5853071577117070  0.5831231680408639  0.3921046554600076
 -0.0001147810204067  0.7518018776139558  0.6048204555555671
  0.7499131231382296 -0.0005376955638130  0.6013688995258984
  0.0811138463670613  0.8341445179253263  0.3951018655037290
 -0.0014391642271991  0.4993203813671123  0.6031250107024826
  0.6685854594883376  0.4139060703804085  0.5001712537688277
  0.8379282834344759  0.5813123663369089  0.3991132444940056
  0.6694122167309359  0.6672273959946011  0.5004863391594251
  0.7485787395323074  0.4991685681152811  0.6056586438052665
  0.1653562059795605  0.1695329060196646  0.5016398069750277
  0.6665358869838907  0.1652451382569286  0.5001263592588969
  0.4988179880494396  0.7506449606857539  0.5968313023795307
  0.8342966087525931  0.3340987160066671  0.4038996879074853
  0.7527935532527457  0.2479514389460666  0.5965529116262109
  0.5008385370841119  0.5000256670988416  0.5966255213828270
  0.8351307850494946  0.8323220890707556  0.4062190568934324
  0.0826355533025632  0.0868073742287512  0.4028160145839692
  0.2509603621185136  0.7507412160009769  0.5966284481952975
  0.5006032432372465 -0.0032643385508997  0.5971311790881312
  0.4183969781165395  0.1686157445868603  0.5012339129524502
  0.6675637366007672  0.9180132858401124  0.5008610725940231
  0.1671876912458002  0.4165009920675340  0.5030180036234123
  0.2499957920447745 -0.0025980401747438  0.5973547751262368
  0.3313598866200347  0.0846873672087690  0.4036324258055456
  0.9133198061621318  0.9181955440710733  0.5009503616634717
  0.9165568626901359  0.6671246431170524  0.5028041382306636
  0.0824882655175159  0.5835539639957622  0.4057200412011637
 -0.0010272603663423  0.2475185004650252  0.5973823783697785
  0.9172803535127657  0.4177218461112772  0.5021952237464063
  0.0826809408633087  0.3328322139640454  0.4062661876513360
  0.0006179975392451  0.0014398027615440  0.5965545086676700
  0.9139068008617716  0.1670831449388298  0.4990899354173695
  0.4167768481131036  0.4146727871976592  0.5001476343433692
  0.7481375583726514  0.7505859420589387  0.5984389893670876
 
  0.00000000E+00  0.00000000E+00  0.00000000E+00
  0.00000000E+00  0.00000000E+00  0.00000000E+00
  0.00000000E+00  0.00000000E+00  0.00000000E+00
  0.00000000E+00  0.00000000E+00  0.00000000E+00
  0.00000000E+00  0.00000000E+00  0.00000000E+00
  0.00000000E+00  0.00000000E+00  0.00000000E+00
  0.00000000E+00  0.00000000E+00  0.00000000E+00
  0.00000000E+00  0.00000000E+00  0.00000000E+00
  0.00000000E+00  0.00000000E+00  0.00000000E+00
  0.00000000E+00  0.00000000E+00  0.00000000E+00
  0.00000000E+00  0.00000000E+00  0.00000000E+00
  0.00000000E+00  0.00000000E+00  0.00000000E+00
  0.00000000E+00  0.00000000E+00  0.00000000E+00
  0.00000000E+00  0.00000000E+00  0.00000000E+00
  0.00000000E+00  0.00000000E+00  0.00000000E+00
  0.00000000E+00  0.00000000E+00  0.00000000E+00
  0.00000000E+00  0.00000000E+00  0.00000000E+00
  0.00000000E+00  0.00000000E+00  0.00000000E+00
  0.00000000E+00  0.00000000E+00  0.00000000E+00
  0.00000000E+00  0.00000000E+00  0.00000000E+00
  0.00000000E+00  0.00000000E+00  0.00000000E+00
  0.00000000E+00  0.00000000E+00  0.00000000E+00
  0.00000000E+00  0.00000000E+00  0.00000000E+00
  0.00000000E+00  0.00000000E+00  0.00000000E+00
  0.00000000E+00  0.00000000E+00  0.00000000E+00
  0.00000000E+00  0.00000000E+00  0.00000000E+00
  0.00000000E+00  0.00000000E+00  0.00000000E+00
  0.00000000E+00  0.00000000E+00  0.00000000E+00
  0.00000000E+00  0.00000000E+00  0.00000000E+00
  0.00000000E+00  0.00000000E+00  0.00000000E+00
  0.00000000E+00  0.00000000E+00  0.00000000E+00
  0.00000000E+00  0.00000000E+00  0.00000000E+00
  0.00000000E+00  0.00000000E+00  0.00000000E+00
  0.00000000E+00  0.00000000E+00  0.00000000E+00
  0.00000000E+00  0.00000000E+00  0.00000000E+00
  0.00000000E+00  0.00000000E+00  0.00000000E+00
  0.00000000E+00  0.00000000E+00  0.00000000E+00
  0.00000000E+00  0.00000000E+00  0.00000000E+00
  0.00000000E+00  0.00000000E+00  0.00000000E+00
  0.00000000E+00  0.00000000E+00  0.00000000E+00
  0.00000000E+00  0.00000000E+00  0.00000000E+00
  0.00000000E+00  0.00000000E+00  0.00000000E+00
  0.00000000E+00  0.00000000E+00  0.00000000E+00
  0.00000000E+00  0.00000000E+00  0.00000000E+00
  0.00000000E+00  0.00000000E+00  0.00000000E+00
  0.00000000E+00  0.00000000E+00  0.00000000E+00
  0.00000000E+00  0.00000000E+00  0.00000000E+00
  0.00000000E+00  0.00000000E+00  0.00000000E+00
