Au  O Pd                                
   1.00000000000000     
    11.0025815152626798    0.0000000000000000    0.0000000000000000
     5.5012907576313399    9.5285150994265617    0.0000000000000000
     0.0000000000000000    0.0000000000000000   26.1917850942952910
   Au   O    Pd
    24     8    24
Selective dynamics
Direct
  0.0833333333333357  0.0833333333333357  0.3817991009012260   F   F   F
  0.5833333333333357  0.8333333333333357  0.3817991009012260   F   F   F
  0.6681919255386418  0.9115166107734234  0.4741836570674852   T   T   T
  0.0071256388947936  0.9685572953708029  0.5623572323873166   T   T   T
  0.0833333333333357  0.3333333333333357  0.3817991009012260   F   F   F
  0.7451658077029185  0.4870752270039627  0.5665568386134578   T   T   T
  0.8333333333333357  0.5833333333333357  0.3817991009012260   F   F   F
  0.7545360208664930  0.2362559571858512  0.5652927447583118   T   T   T
  0.0833333333333357  0.5833333333333357  0.3817991009012260   F   F   F
  0.6731488661183648  0.4132417307043101  0.4757045356424748   T   T   T
 -0.0033076485044731  0.5118964058953274  0.5679357460337339   T   T   T
  0.3333333333333357  0.8333333333333357  0.3817991009012260   F   F   F
  0.7536183754980759  0.9902865756289486  0.5602537533886757   T   T   T
  0.5229555722314821  0.5020373648739778  0.6256384658536530   T   T   T
  0.5833333333333357  0.5833333333333357  0.3817991009012260   F   F   F
  0.3333333333333357  0.0833333333333357  0.3817991009012260   F   F   F
  0.2578955393935830  0.9861986454398758  0.5641430851580485   T   T   T
  0.4262993505528596  0.4109990797399945  0.4814419832559900   T   T   T
  0.3333333333333357  0.3333333333333357  0.3817991009012260   F   F   F
  0.1693000128194039  0.4149772584585574  0.4763162861182502   T   T   T
  0.2572718566886608  0.2436194471989477  0.5671959237667781   T   T   T
  0.5833333333333357  0.3333333333333357  0.3817991009012260   F   F   F
  0.1688797532117513  0.6679611949385960  0.4763891646136160   T   T   T
  0.5833333333333357  0.0833333333333357  0.3817991009012260   F   F   F
  0.0879779501749379  0.0614122603695512  0.6157976711025814   T   T   T
  0.2179991186047550  0.6285788709102073  0.6220955476436847   T   T   T
  0.0875267534294355  0.3262305853717993  0.6182548199396722   T   T   T
  0.8220296741961162  0.8419101947105747  0.6234071008854284   T   T   T
  0.4284250707116381  0.7086352508661177  0.6226819008695108   T   T   T
  0.5276057015534300  0.0810049845991986  0.6257447662381961   T   T   T
  0.7743313670163631  0.5990203293757753  0.6235509541136537   T   T   T
  0.6155215803241145  0.2958263488743887  0.6335577216501570   T   T   T
  0.4991462314179474  0.9954130306627976  0.5668965041986979   T   T   T
  0.4945062149669329  0.2477454918037326  0.5902003517965553   T   T   T
  0.4195628731645123  0.1654323483213386  0.4801265525401048   T   T   T
  0.1667497358629322  0.1643101639749344  0.4750289184932562   T   T   T
  0.2578835080788031  0.4920910601970739  0.5654717415307885   T   T   T
  0.4204454588026093  0.6641646347529154  0.4730738457325214   T   T   T
  0.7405313658971802  0.7530063273151139  0.5789978775627763   T   T   T
  0.2735204961746048  0.7285686844540993  0.5710694197138674   T   T   T
  0.0205918705076349  0.7330163234609880  0.6138569157398166   T   T   T
  0.5089650928202103  0.7418114485632482  0.5590609561838297   T   T   T
  0.0833333333333357  0.8333333333333357  0.3817991009012260   F   F   F
  0.4172631527726079  0.9168700008217375  0.4765313391890603   T   T   T
  0.8333333333333357  0.0833333333333357  0.3817991009012260   F   F   F
  0.6720202811305002  0.1608099878310965  0.4740316701136976   T   T   T
  0.8333333333333357  0.3333333333333357  0.3817991009012260   F   F   F
  0.9180328340914399  0.6666403639101578  0.4801278386534280   T   T   T
  0.0000316137213828  0.2410998319922049  0.5736693200846152   T   T   T
  0.6721222049357007  0.6645346178119501  0.4761201968400740   T   T   T
  0.9205737056723413  0.4127746925239291  0.4769658201886858   T   T   T
  0.8333333333333357  0.8333333333333357  0.3817991009012260   F   F   F
  0.9210379521679447  0.1619960799455756  0.4767909637868492   T   T   T
  0.1703538667692471  0.9125804406078072  0.4723353942166874   T   T   T
  0.9204929164807106  0.9113429112903051  0.4711196840358462   T   T   T
  0.3333333333333357  0.5833333333333357  0.3817991009012260   F   F   F
 
  0.00000000E+00  0.00000000E+00  0.00000000E+00
  0.00000000E+00  0.00000000E+00  0.00000000E+00
  0.00000000E+00  0.00000000E+00  0.00000000E+00
  0.00000000E+00  0.00000000E+00  0.00000000E+00
  0.00000000E+00  0.00000000E+00  0.00000000E+00
  0.00000000E+00  0.00000000E+00  0.00000000E+00
  0.00000000E+00  0.00000000E+00  0.00000000E+00
  0.00000000E+00  0.00000000E+00  0.00000000E+00
  0.00000000E+00  0.00000000E+00  0.00000000E+00
  0.00000000E+00  0.00000000E+00  0.00000000E+00
  0.00000000E+00  0.00000000E+00  0.00000000E+00
  0.00000000E+00  0.00000000E+00  0.00000000E+00
  0.00000000E+00  0.00000000E+00  0.00000000E+00
  0.00000000E+00  0.00000000E+00  0.00000000E+00
  0.00000000E+00  0.00000000E+00  0.00000000E+00
  0.00000000E+00  0.00000000E+00  0.00000000E+00
  0.00000000E+00  0.00000000E+00  0.00000000E+00
  0.00000000E+00  0.00000000E+00  0.00000000E+00
  0.00000000E+00  0.00000000E+00  0.00000000E+00
  0.00000000E+00  0.00000000E+00  0.00000000E+00
  0.00000000E+00  0.00000000E+00  0.00000000E+00
  0.00000000E+00  0.00000000E+00  0.00000000E+00
  0.00000000E+00  0.00000000E+00  0.00000000E+00
  0.00000000E+00  0.00000000E+00  0.00000000E+00
  0.00000000E+00  0.00000000E+00  0.00000000E+00
  0.00000000E+00  0.00000000E+00  0.00000000E+00
  0.00000000E+00  0.00000000E+00  0.00000000E+00
  0.00000000E+00  0.00000000E+00  0.00000000E+00
  0.00000000E+00  0.00000000E+00  0.00000000E+00
  0.00000000E+00  0.00000000E+00  0.00000000E+00
  0.00000000E+00  0.00000000E+00  0.00000000E+00
  0.00000000E+00  0.00000000E+00  0.00000000E+00
  0.00000000E+00  0.00000000E+00  0.00000000E+00
  0.00000000E+00  0.00000000E+00  0.00000000E+00
  0.00000000E+00  0.00000000E+00  0.00000000E+00
  0.00000000E+00  0.00000000E+00  0.00000000E+00
  0.00000000E+00  0.00000000E+00  0.00000000E+00
  0.00000000E+00  0.00000000E+00  0.00000000E+00
  0.00000000E+00  0.00000000E+00  0.00000000E+00
  0.00000000E+00  0.00000000E+00  0.00000000E+00
  0.00000000E+00  0.00000000E+00  0.00000000E+00
  0.00000000E+00  0.00000000E+00  0.00000000E+00
  0.00000000E+00  0.00000000E+00  0.00000000E+00
  0.00000000E+00  0.00000000E+00  0.00000000E+00
  0.00000000E+00  0.00000000E+00  0.00000000E+00
  0.00000000E+00  0.00000000E+00  0.00000000E+00
  0.00000000E+00  0.00000000E+00  0.00000000E+00
  0.00000000E+00  0.00000000E+00  0.00000000E+00
  0.00000000E+00  0.00000000E+00  0.00000000E+00
  0.00000000E+00  0.00000000E+00  0.00000000E+00
  0.00000000E+00  0.00000000E+00  0.00000000E+00
  0.00000000E+00  0.00000000E+00  0.00000000E+00
  0.00000000E+00  0.00000000E+00  0.00000000E+00
  0.00000000E+00  0.00000000E+00  0.00000000E+00
  0.00000000E+00  0.00000000E+00  0.00000000E+00
  0.00000000E+00  0.00000000E+00  0.00000000E+00
