Au Pd                                   
   1.00000000000000     
    11.0025815152626798    0.0000000000000000    0.0000000000000000
     5.5012907576313399    9.5285150994265617    0.0000000000000000
     0.0000000000000000    0.0000000000000000   24.4917850942952882
   Au   Pd
    24    24
Direct
  0.2520924029371843  0.7471370791672474  0.6027542913101090
  0.5818393373759317  0.8350985764259680  0.3965005960668519
  0.4183612873183627  0.4147026197104645  0.4999339913269268
  0.5842978599926592  0.3328890282112321  0.3982668896238021
  0.4978393059105484  0.0010514192063386  0.6022999287927818
  0.5834125753474312  0.0843029732432141  0.3984562028183841
  0.6659407844134555  0.9158890721333446  0.5007790739953416
  0.3316989828685962  0.8355451840151391  0.4005401230031667
  0.1671284556027071  0.6655161055965976  0.5006635115104149
  0.7480715695084602  0.0007210808586258  0.6064444432350216
  0.8356943365249048  0.3299236931929282  0.3993183111434302
  0.5825675921549222  0.5833839626863114  0.3982062945541132
  0.2498797252062032 -0.0010633233164768  0.6039541467589488
  0.3317853636887824  0.3352183162942250  0.3968146944342045
 -0.0009809991527980  0.7469416363030218  0.6048633632627324
  0.9168314012669787  0.9185257236056076  0.5025578883005358
  0.0844200822638251  0.8343439604774134  0.3983037731004204
  0.8359677741290225  0.8337590137087718  0.3966184952098951
  0.7473330578320690  0.2524723341675861  0.6021259086600419
  0.8350774998534499  0.5840267797213929  0.3949104410007135
  0.1685395040227514  0.1650312585340507  0.5015314311790396
  0.0852895582760207  0.3321858239328950  0.3958487369880046
 -0.0018866125354338  0.2524828983564880  0.6048697599508018
  0.9158379470526354  0.4185007521107269  0.4998779588796696
  0.6671302106533521  0.4160266245314908  0.5001047745968418
  0.7468722696273431  0.5036194314941141  0.5954227942456405
  0.5018227812881668  0.7475520657074335  0.5952285084116065
  0.6659679413738443  0.6663939136128291  0.4978799627170219
  0.8345657088902847  0.0834229251323786  0.4057768784134652
  0.6672560875802226  0.1668726655525002  0.5015610913274617
  0.4176167530026249  0.9147785443507090  0.5004176144283393
  0.4997293192113965  0.4998561981989724  0.5962008125045685
  0.0837993337731162  0.0835257567794456  0.4058730174046547
  0.4968954153278308  0.2521321657108477  0.5967889270264463
  0.4178585547473913  0.1655323511913548  0.5000188780542286
  0.1684652862150031  0.9158545616185597  0.5021126658408595
  0.2496232947676839  0.4971047048724249  0.5969153296740427
  0.3330950537941660  0.5837822083343365  0.4028935005709751
  0.2480566585920264  0.2530302214858091  0.5970253582297533
  0.1675060392757989  0.4150819684854234  0.4986281973216142
  0.3329904848393552  0.0841805101308739  0.4045507940243281
 -0.0008592362043549  0.5002758206852976  0.5958373874811154
  0.9167277692199282  0.6661905831026489  0.4992856394510979
  0.0840190939326712  0.5839805480612847  0.4024585908780819
 -0.0006359241615225 -0.0006510027145849  0.5997459524154437
  0.9161579437069443  0.1676128512036898  0.5028873695831475
  0.4189558209899832  0.6674289922294064  0.5000299160166483
  0.7493445476980739  0.7478294218996413  0.5959157842772652
 
  0.00000000E+00  0.00000000E+00  0.00000000E+00
  0.00000000E+00  0.00000000E+00  0.00000000E+00
  0.00000000E+00  0.00000000E+00  0.00000000E+00
  0.00000000E+00  0.00000000E+00  0.00000000E+00
  0.00000000E+00  0.00000000E+00  0.00000000E+00
  0.00000000E+00  0.00000000E+00  0.00000000E+00
  0.00000000E+00  0.00000000E+00  0.00000000E+00
  0.00000000E+00  0.00000000E+00  0.00000000E+00
  0.00000000E+00  0.00000000E+00  0.00000000E+00
  0.00000000E+00  0.00000000E+00  0.00000000E+00
  0.00000000E+00  0.00000000E+00  0.00000000E+00
  0.00000000E+00  0.00000000E+00  0.00000000E+00
  0.00000000E+00  0.00000000E+00  0.00000000E+00
  0.00000000E+00  0.00000000E+00  0.00000000E+00
  0.00000000E+00  0.00000000E+00  0.00000000E+00
  0.00000000E+00  0.00000000E+00  0.00000000E+00
  0.00000000E+00  0.00000000E+00  0.00000000E+00
  0.00000000E+00  0.00000000E+00  0.00000000E+00
  0.00000000E+00  0.00000000E+00  0.00000000E+00
  0.00000000E+00  0.00000000E+00  0.00000000E+00
  0.00000000E+00  0.00000000E+00  0.00000000E+00
  0.00000000E+00  0.00000000E+00  0.00000000E+00
  0.00000000E+00  0.00000000E+00  0.00000000E+00
  0.00000000E+00  0.00000000E+00  0.00000000E+00
  0.00000000E+00  0.00000000E+00  0.00000000E+00
  0.00000000E+00  0.00000000E+00  0.00000000E+00
  0.00000000E+00  0.00000000E+00  0.00000000E+00
  0.00000000E+00  0.00000000E+00  0.00000000E+00
  0.00000000E+00  0.00000000E+00  0.00000000E+00
  0.00000000E+00  0.00000000E+00  0.00000000E+00
  0.00000000E+00  0.00000000E+00  0.00000000E+00
  0.00000000E+00  0.00000000E+00  0.00000000E+00
  0.00000000E+00  0.00000000E+00  0.00000000E+00
  0.00000000E+00  0.00000000E+00  0.00000000E+00
  0.00000000E+00  0.00000000E+00  0.00000000E+00
  0.00000000E+00  0.00000000E+00  0.00000000E+00
  0.00000000E+00  0.00000000E+00  0.00000000E+00
  0.00000000E+00  0.00000000E+00  0.00000000E+00
  0.00000000E+00  0.00000000E+00  0.00000000E+00
  0.00000000E+00  0.00000000E+00  0.00000000E+00
  0.00000000E+00  0.00000000E+00  0.00000000E+00
  0.00000000E+00  0.00000000E+00  0.00000000E+00
  0.00000000E+00  0.00000000E+00  0.00000000E+00
  0.00000000E+00  0.00000000E+00  0.00000000E+00
  0.00000000E+00  0.00000000E+00  0.00000000E+00
  0.00000000E+00  0.00000000E+00  0.00000000E+00
  0.00000000E+00  0.00000000E+00  0.00000000E+00
  0.00000000E+00  0.00000000E+00  0.00000000E+00
