Au Pd                                   
   1.00000000000000     
    11.0025815152626798    0.0000000000000000    0.0000000000000000
     5.5012907576313399    9.5285150994265617    0.0000000000000000
     0.0000000000000000    0.0000000000000000   24.4917850942952882
   Au   Pd
    24    24
Direct
  0.0874013479586711  0.0821217223966759  0.3974459843637208
  0.4989110036436550  0.5006419349056302  0.6017475345277754
  0.8308617237622757  0.0843443769358540  0.3935069668611449
  0.6637564377638815  0.9152602198509736  0.5005364985113441
  0.6633496755850256  0.1695489670533764  0.5012868208921146
  0.8339640929762564  0.3329331789134806  0.3982076068465102
  0.1662835441771635  0.6672479218049704  0.4989500946713637
  0.3357910970132962  0.5815668647244038  0.3953111845190765
  0.2528266318970123  0.2514125135502588  0.6062852133021951
  0.1651108577653650  0.4176703403147306  0.5006652942089246
  0.4178219574068532  0.6676118384070492  0.5006580106260108
  0.2541739930561175 -0.0035579158378971  0.6054810986391198
  0.1668854767632099  0.1661985425651915  0.5024937495859818
  0.3363796317075692  0.3287448218952471  0.3989737136630032
  0.7485578739540336  0.2504583551067639  0.6059725796778157
  0.9153725909858420  0.1689487382665281  0.5016892711840792
  0.0008702137776400 -0.0032704903097127  0.6056397874321038
  0.8297531629516944  0.8345953309779177  0.3938474255795877
 -0.0012711128050570  0.2544765907721808  0.6063525846136869
  0.5826251934436422  0.5847621777167654  0.3976943972332877
  0.8333229159930557  0.5831665728128265  0.3975721315328585
  0.0853039287881256  0.8335943724515895  0.3948902680575479
  0.9158676877788049  0.9165750554895956  0.5000178631550499
  0.0840482911902992  0.5813220723725498  0.3931405186521651
  0.6675660223633296  0.6648906252201292  0.4987924702696210
  0.7496881975437695 -0.0021163071043412  0.5984485166732521
  0.6662503105377507  0.4179581542871233  0.5005383733237978
  0.5030445463401320  0.7495873799347560  0.5972484211805229
  0.4155596810168263  0.9172995071802915  0.5028814546238805
  0.5804496183955554  0.8360186052792646  0.4040008705571052
  0.7500844470984026  0.5024773876915665  0.5955911734907950
  0.2500402280289619  0.7492207020479476  0.5972169950043519
  0.4166438728157953  0.4171221510067898  0.5001520589806618
  0.5840462296460236  0.3322193005770010  0.4040045370358403
  0.5027567585721523 -0.0015400162522327  0.5988535406533957
  0.4148216480489531  0.1681399422065572  0.5020302807150947
  0.5830378066425866  0.0828297516669321  0.4038765562111798
  0.1663806491744401  0.9177747640561930  0.5016262118393663
  0.3345767694270232  0.8340943386026685  0.4050571168446183
  0.2490781378694189  0.5011899213007447  0.5969990426882554
  0.3353524777710297  0.0809994989808586  0.4062590045171151
 -0.0001478060143904  0.7480617553756747  0.5959660181709875
 -0.0016790002063625  0.5029955249635191  0.5961804824681206
  0.9147859128585797  0.6663807778528751  0.4974337886184975
  0.9131564423200623  0.4191697548364141  0.5002205935710011
  0.0850662039697288  0.3316921283377892  0.4041193266395887
  0.5001202069810751  0.2486422270160615  0.5984988996741157
  0.7513524212647226  0.7485180217984668  0.5956376679123691
 
  0.00000000E+00  0.00000000E+00  0.00000000E+00
  0.00000000E+00  0.00000000E+00  0.00000000E+00
  0.00000000E+00  0.00000000E+00  0.00000000E+00
  0.00000000E+00  0.00000000E+00  0.00000000E+00
  0.00000000E+00  0.00000000E+00  0.00000000E+00
  0.00000000E+00  0.00000000E+00  0.00000000E+00
  0.00000000E+00  0.00000000E+00  0.00000000E+00
  0.00000000E+00  0.00000000E+00  0.00000000E+00
  0.00000000E+00  0.00000000E+00  0.00000000E+00
  0.00000000E+00  0.00000000E+00  0.00000000E+00
  0.00000000E+00  0.00000000E+00  0.00000000E+00
  0.00000000E+00  0.00000000E+00  0.00000000E+00
  0.00000000E+00  0.00000000E+00  0.00000000E+00
  0.00000000E+00  0.00000000E+00  0.00000000E+00
  0.00000000E+00  0.00000000E+00  0.00000000E+00
  0.00000000E+00  0.00000000E+00  0.00000000E+00
  0.00000000E+00  0.00000000E+00  0.00000000E+00
  0.00000000E+00  0.00000000E+00  0.00000000E+00
  0.00000000E+00  0.00000000E+00  0.00000000E+00
  0.00000000E+00  0.00000000E+00  0.00000000E+00
  0.00000000E+00  0.00000000E+00  0.00000000E+00
  0.00000000E+00  0.00000000E+00  0.00000000E+00
  0.00000000E+00  0.00000000E+00  0.00000000E+00
  0.00000000E+00  0.00000000E+00  0.00000000E+00
  0.00000000E+00  0.00000000E+00  0.00000000E+00
  0.00000000E+00  0.00000000E+00  0.00000000E+00
  0.00000000E+00  0.00000000E+00  0.00000000E+00
  0.00000000E+00  0.00000000E+00  0.00000000E+00
  0.00000000E+00  0.00000000E+00  0.00000000E+00
  0.00000000E+00  0.00000000E+00  0.00000000E+00
  0.00000000E+00  0.00000000E+00  0.00000000E+00
  0.00000000E+00  0.00000000E+00  0.00000000E+00
  0.00000000E+00  0.00000000E+00  0.00000000E+00
  0.00000000E+00  0.00000000E+00  0.00000000E+00
  0.00000000E+00  0.00000000E+00  0.00000000E+00
  0.00000000E+00  0.00000000E+00  0.00000000E+00
  0.00000000E+00  0.00000000E+00  0.00000000E+00
  0.00000000E+00  0.00000000E+00  0.00000000E+00
  0.00000000E+00  0.00000000E+00  0.00000000E+00
  0.00000000E+00  0.00000000E+00  0.00000000E+00
  0.00000000E+00  0.00000000E+00  0.00000000E+00
  0.00000000E+00  0.00000000E+00  0.00000000E+00
  0.00000000E+00  0.00000000E+00  0.00000000E+00
  0.00000000E+00  0.00000000E+00  0.00000000E+00
  0.00000000E+00  0.00000000E+00  0.00000000E+00
  0.00000000E+00  0.00000000E+00  0.00000000E+00
  0.00000000E+00  0.00000000E+00  0.00000000E+00
  0.00000000E+00  0.00000000E+00  0.00000000E+00
