Au  O Pd                                
   1.00000000000000     
    11.0025815152626798    0.0000000000000000    0.0000000000000000
     5.5012907576313399    9.5285150994265617    0.0000000000000000
     0.0000000000000000    0.0000000000000000   26.1917850942952910
   Au   O    Pd
    24     8    24
Selective dynamics
Direct
  0.2585595997136120 -0.0161856801150292  0.5643486646066060   T   T   T
  0.8333333333333357  0.8333333333333357  0.3817991009012260   F   F   F
 -0.0210919494023649  0.2436106868204568  0.6030587607380291   T   T   T
  0.7838139273415091  0.4892608531126459  0.5645219999482957   T   T   T
  0.9175499692200433  0.1665283785056903  0.4765820462091080   T   T   T
  0.0378006530791163  0.4982054782851696  0.6157109795586220   T   T   T
  0.6717977916678664  0.6639602130394159  0.4765049900588316   T   T   T
  0.8333333333333357  0.5833333333333357  0.3817991009012260   F   F   F
  0.7454778897768750  0.2556363323784832  0.5665868221061597   T   T   T
  0.9255541288426496  0.4110474400201664  0.4731715613708873   T   T   T
  0.4186531994104385  0.4186485741065896  0.4776802586799108   T   T   T
  0.5833333333333357  0.3333333333333357  0.3817991009012260   F   F   F
  0.6659712962678442  0.1648741656541563  0.4769660807207646   T   T   T
  0.3333333333333357  0.3333333333333357  0.3817991009012260   F   F   F
  0.2608396810173943  0.2345139821626489  0.5643684480094696   T   T   T
  0.5085432173736250  0.7128832263690836  0.5655012808497094   T   T   T
  0.4180543252359655  0.9116719856461621  0.4742111755567786   T   T   T
  0.5833333333333357  0.8333333333333357  0.3817991009012260   F   F   F
  0.2425132674084269  0.4975184660225515  0.5617050417843762   T   T   T
  0.4464517330135890  0.5386228563812149  0.6296466073936521   T   T   T
  0.1657935361775598  0.9118950806527695  0.4701564959210623   T   T   T
  0.4192684428305025  0.1622750667226013  0.4773744095059920   T   T   T
  0.4573891645278452  0.2811326525747457  0.6099258290516277   T   T   T
  0.8333333333333357  0.0833333333333357  0.3817991009012260   F   F   F
  0.8213465335318717  0.5362617833361145  0.6386787128586290   T   T   T
  0.2810587611127040  0.7253600950238228  0.6334106680683098   T   T   T
  0.5778704292318569  0.8182787320300891  0.6203797421433729   T   T   T
  0.1335845654006269  0.2833298533517971  0.6329121382803573   T   T   T
  0.8478660239216499  0.8607161027209743  0.6172048579519699   T   T   T
  0.0915017952560245  0.0337738404778250  0.6190966704608418   T   T   T
  0.6044406514035233  0.3429503526187776  0.6325758612136037   T   T   T
  0.5827715441304536  0.0668498068715112  0.6108867511995192   T   T   T
  0.2442284919483064  0.7398638065842560  0.5603443386198418   T   T   T
  0.3333333333333357  0.8333333333333357  0.3817991009012260   F   F   F
  0.0012033650518453 -0.0134904734429437  0.5625041398801398   T   T   T
  0.1631509666215026  0.6647441929835194  0.4725493985248935   T   T   T
  0.3333333333333357  0.5833333333333357  0.3817991009012260   F   F   F
  0.0833333333333357  0.3333333333333357  0.3817991009012260   F   F   F
  0.1691354506791421  0.4134926498540785  0.4718770822813506   T   T   T
  0.0833333333333357  0.5833333333333357  0.3817991009012260   F   F   F
  0.1687579598079207  0.1633803602543399  0.4719847058354966   T   T   T
  0.3333333333333357  0.0833333333333357  0.3817991009012260   F   F   F
  0.5088388768639244 -0.0283122078379937  0.5674898289847511   T   T   T
  0.9201168116025792  0.6630609921517227  0.4747257730643884   T   T   T
 -0.0126297232787204  0.7387268927971505  0.5644839508183057   T   T   T
  0.9168041234135073  0.9117848775759311  0.4752744945590845   T   T   T
  0.5833333333333357  0.0833333333333357  0.3817991009012260   F   F   F
  0.0833333333333357  0.0833333333333357  0.3817991009012260   F   F   F
  0.8333333333333357  0.3333333333333357  0.3817991009012260   F   F   F
  0.7503129978849679  0.0052449607214357  0.5639663361434107   T   T   T
  0.6700819802875586  0.9128563952401900  0.4744776547558192   T   T   T
  0.5833333333333357  0.5833333333333357  0.3817991009012260   F   F   F
  0.4179575420550589  0.6617739634219451  0.4728967930259450   T   T   T
  0.6688488483401093  0.4187510169009762  0.4763241219992581   T   T   T
  0.7876058385337209  0.7243461085922410  0.6249956244751188   T   T   T
  0.0833333333333357  0.8333333333333357  0.3817991009012260   F   F   F
 
  0.00000000E+00  0.00000000E+00  0.00000000E+00
  0.00000000E+00  0.00000000E+00  0.00000000E+00
  0.00000000E+00  0.00000000E+00  0.00000000E+00
  0.00000000E+00  0.00000000E+00  0.00000000E+00
  0.00000000E+00  0.00000000E+00  0.00000000E+00
  0.00000000E+00  0.00000000E+00  0.00000000E+00
  0.00000000E+00  0.00000000E+00  0.00000000E+00
  0.00000000E+00  0.00000000E+00  0.00000000E+00
  0.00000000E+00  0.00000000E+00  0.00000000E+00
  0.00000000E+00  0.00000000E+00  0.00000000E+00
  0.00000000E+00  0.00000000E+00  0.00000000E+00
  0.00000000E+00  0.00000000E+00  0.00000000E+00
  0.00000000E+00  0.00000000E+00  0.00000000E+00
  0.00000000E+00  0.00000000E+00  0.00000000E+00
  0.00000000E+00  0.00000000E+00  0.00000000E+00
  0.00000000E+00  0.00000000E+00  0.00000000E+00
  0.00000000E+00  0.00000000E+00  0.00000000E+00
  0.00000000E+00  0.00000000E+00  0.00000000E+00
  0.00000000E+00  0.00000000E+00  0.00000000E+00
  0.00000000E+00  0.00000000E+00  0.00000000E+00
  0.00000000E+00  0.00000000E+00  0.00000000E+00
  0.00000000E+00  0.00000000E+00  0.00000000E+00
  0.00000000E+00  0.00000000E+00  0.00000000E+00
  0.00000000E+00  0.00000000E+00  0.00000000E+00
  0.00000000E+00  0.00000000E+00  0.00000000E+00
  0.00000000E+00  0.00000000E+00  0.00000000E+00
  0.00000000E+00  0.00000000E+00  0.00000000E+00
  0.00000000E+00  0.00000000E+00  0.00000000E+00
  0.00000000E+00  0.00000000E+00  0.00000000E+00
  0.00000000E+00  0.00000000E+00  0.00000000E+00
  0.00000000E+00  0.00000000E+00  0.00000000E+00
  0.00000000E+00  0.00000000E+00  0.00000000E+00
  0.00000000E+00  0.00000000E+00  0.00000000E+00
  0.00000000E+00  0.00000000E+00  0.00000000E+00
  0.00000000E+00  0.00000000E+00  0.00000000E+00
  0.00000000E+00  0.00000000E+00  0.00000000E+00
  0.00000000E+00  0.00000000E+00  0.00000000E+00
  0.00000000E+00  0.00000000E+00  0.00000000E+00
  0.00000000E+00  0.00000000E+00  0.00000000E+00
  0.00000000E+00  0.00000000E+00  0.00000000E+00
  0.00000000E+00  0.00000000E+00  0.00000000E+00
  0.00000000E+00  0.00000000E+00  0.00000000E+00
  0.00000000E+00  0.00000000E+00  0.00000000E+00
  0.00000000E+00  0.00000000E+00  0.00000000E+00
  0.00000000E+00  0.00000000E+00  0.00000000E+00
  0.00000000E+00  0.00000000E+00  0.00000000E+00
  0.00000000E+00  0.00000000E+00  0.00000000E+00
  0.00000000E+00  0.00000000E+00  0.00000000E+00
  0.00000000E+00  0.00000000E+00  0.00000000E+00
  0.00000000E+00  0.00000000E+00  0.00000000E+00
  0.00000000E+00  0.00000000E+00  0.00000000E+00
  0.00000000E+00  0.00000000E+00  0.00000000E+00
  0.00000000E+00  0.00000000E+00  0.00000000E+00
  0.00000000E+00  0.00000000E+00  0.00000000E+00
  0.00000000E+00  0.00000000E+00  0.00000000E+00
  0.00000000E+00  0.00000000E+00  0.00000000E+00
