Au Pd                                   
   1.00000000000000     
    11.0025815152626798    0.0000000000000000    0.0000000000000000
     5.5012907576313399    9.5285150994265617    0.0000000000000000
     0.0000000000000000    0.0000000000000000   24.4917850942952882
   Au   Pd
    24    24
Selective dynamics
Direct
  0.2501801725840044  0.7514754277345161  0.6106779123322291   T   T   T
  0.9165611215899965  0.9179440736583331  0.5082913728862875   T   T   T
  0.0833333333333357  0.8333333333333357  0.4083001692812189   F   F   F
 -0.0000960517533809  0.4990766805977910  0.6141090880318113   T   T   T
  0.0833333333333357  0.5833333333333357  0.4083001692812189   F   F   F
  0.9166551818310268  0.6662420453934832  0.5103969978276139   T   T   T
  0.3333333333333357  0.0833333333333357  0.4083001692812189   F   F   F
  0.7482779295230124  0.5007268813758945  0.6098980178955078   T   T   T
  0.0833333333333357  0.3333333333333357  0.4083001692812189   F   F   F
  0.9167226323223077  0.1689367708849408  0.5080750344635283   T   T   T
  0.8333333333333357  0.5833333333333357  0.4083001692812189   F   F   F
  0.8333333333333357  0.3333333333333357  0.4083001692812189   F   F   F
  0.5833333333333357  0.8333333333333357  0.4083001692812189   F   F   F
  0.5833333333333357  0.5833333333333357  0.4083001692812189   F   F   F
  0.1680824102563764  0.4167374459764303  0.5101670855280690   T   T   T
  0.3333333333333357  0.5833333333333357  0.4083001692812189   F   F   F
  0.2518695635060184  0.4987502108813145  0.6119639696015322   T   T   T
  0.1708884736540627  0.9163642452178725  0.5076413948690950   T   T   T
  0.6660840308554734  0.9165278172800014  0.5100635874638139   T   T   T
  0.5833333333333357  0.0833333333333357  0.4083001692812189   F   F   F
  0.4167051619078882  0.1684189750151469  0.5098525918644021   T   T   T
  0.4987346798313139 -0.0009533163706948  0.6123944943011999   T   T   T
  0.5833333333333357  0.3333333333333357  0.4083001692812189   F   F   F
  0.7494965243645852  0.2480929019963120  0.6105506524991813   T   T   T
  0.1701405179203161  0.6656791640605706  0.5105664697623924   T   T   T
  0.2491145834200759  0.2483883203021849  0.6069557829397241   T   T   T
  0.3333333333333357  0.3333333333333357  0.4083001692812189   F   F   F
  0.2487312216866248  0.0015803243678118  0.6050025494171500   T   T   T
  0.0000873451303344 -0.0002718550062521  0.6062910705062511   T   T   T
 -0.0021877682939704  0.7523429756354602  0.6070071537187324   T   T   T
  0.0028335932293752  0.2468403198972320  0.6057910378317208   T   T   T
  0.9158808848490750  0.4170809116855023  0.5106172853748624   T   T   T
  0.3333333333333357  0.8333333333333357  0.4083001692812189   F   F   F
  0.1673047997320206  0.1673521248459310  0.5075471193501994   T   T   T
  0.4178741244566876  0.4189272015851737  0.5081712050568182   T   T   T
  0.4173271639784322  0.9154270905254843  0.5082124747967577   T   T   T
  0.4176798447800307  0.6664920148207129  0.5076788912096711   T   T   T
  0.0833333333333357  0.0833333333333357  0.4083001692812189   F   F   F
  0.6658252742748110  0.1702370247369693  0.5089929047870956   T   T   T
  0.4989530919283727  0.7502846521124720  0.6043513992398675   T   T   T
  0.6659465659526810  0.4182060879731279  0.5095179706086792   T   T   T
  0.8333333333333357  0.8333333333333357  0.4083001692812189   F   F   F
  0.6652617996579189  0.6653754638140094  0.5098238846759644   T   T   T
  0.7505372367597313 -0.0012796821590357  0.6066279714786511   T   T   T
  0.8333333333333357  0.0833333333333357  0.4083001692812189   F   F   F
  0.4992618566500707  0.5001422675716258  0.6043434444630942   T   T   T
  0.5005207029462290  0.2492975785529117  0.6058430150783962   T   T   T
  0.7492701340373407  0.7500662686904058  0.6075624563440872   T   T   T
 
  0.00000000E+00  0.00000000E+00  0.00000000E+00
  0.00000000E+00  0.00000000E+00  0.00000000E+00
  0.00000000E+00  0.00000000E+00  0.00000000E+00
  0.00000000E+00  0.00000000E+00  0.00000000E+00
  0.00000000E+00  0.00000000E+00  0.00000000E+00
  0.00000000E+00  0.00000000E+00  0.00000000E+00
  0.00000000E+00  0.00000000E+00  0.00000000E+00
  0.00000000E+00  0.00000000E+00  0.00000000E+00
  0.00000000E+00  0.00000000E+00  0.00000000E+00
  0.00000000E+00  0.00000000E+00  0.00000000E+00
  0.00000000E+00  0.00000000E+00  0.00000000E+00
  0.00000000E+00  0.00000000E+00  0.00000000E+00
  0.00000000E+00  0.00000000E+00  0.00000000E+00
  0.00000000E+00  0.00000000E+00  0.00000000E+00
  0.00000000E+00  0.00000000E+00  0.00000000E+00
  0.00000000E+00  0.00000000E+00  0.00000000E+00
  0.00000000E+00  0.00000000E+00  0.00000000E+00
  0.00000000E+00  0.00000000E+00  0.00000000E+00
  0.00000000E+00  0.00000000E+00  0.00000000E+00
  0.00000000E+00  0.00000000E+00  0.00000000E+00
  0.00000000E+00  0.00000000E+00  0.00000000E+00
  0.00000000E+00  0.00000000E+00  0.00000000E+00
  0.00000000E+00  0.00000000E+00  0.00000000E+00
  0.00000000E+00  0.00000000E+00  0.00000000E+00
  0.00000000E+00  0.00000000E+00  0.00000000E+00
  0.00000000E+00  0.00000000E+00  0.00000000E+00
  0.00000000E+00  0.00000000E+00  0.00000000E+00
  0.00000000E+00  0.00000000E+00  0.00000000E+00
  0.00000000E+00  0.00000000E+00  0.00000000E+00
  0.00000000E+00  0.00000000E+00  0.00000000E+00
  0.00000000E+00  0.00000000E+00  0.00000000E+00
  0.00000000E+00  0.00000000E+00  0.00000000E+00
  0.00000000E+00  0.00000000E+00  0.00000000E+00
  0.00000000E+00  0.00000000E+00  0.00000000E+00
  0.00000000E+00  0.00000000E+00  0.00000000E+00
  0.00000000E+00  0.00000000E+00  0.00000000E+00
  0.00000000E+00  0.00000000E+00  0.00000000E+00
  0.00000000E+00  0.00000000E+00  0.00000000E+00
  0.00000000E+00  0.00000000E+00  0.00000000E+00
  0.00000000E+00  0.00000000E+00  0.00000000E+00
  0.00000000E+00  0.00000000E+00  0.00000000E+00
  0.00000000E+00  0.00000000E+00  0.00000000E+00
  0.00000000E+00  0.00000000E+00  0.00000000E+00
  0.00000000E+00  0.00000000E+00  0.00000000E+00
  0.00000000E+00  0.00000000E+00  0.00000000E+00
  0.00000000E+00  0.00000000E+00  0.00000000E+00
  0.00000000E+00  0.00000000E+00  0.00000000E+00
  0.00000000E+00  0.00000000E+00  0.00000000E+00
