Au Pd                                   
   1.00000000000000     
    11.0025815152626798    0.0000000000000000    0.0000000000000000
     5.5012907576313399    9.5285150994265617    0.0000000000000000
     0.0000000000000000    0.0000000000000000   24.4917850942952882
   Au   Pd
    24    24
Direct
  0.3319644845557994  0.3335991666695796  0.3986303242632396
  0.5833123561745237  0.3333879884872837  0.3947608082262546
  0.5811856703674607  0.8347682563382076  0.3986914552785683
  0.5826514915819557  0.0835984665356040  0.3953891925187898
  0.5032221482971445  0.7485718646339324  0.6012313502795855
  0.1665874116734611  0.9163249429888147  0.5027186208188578
  0.3291441706847413  0.8360166343813608  0.3973054259890553
  0.2502731573202057  0.4998188513729431  0.6002461039513974
  0.6649446189748492  0.1667669785488707  0.5003724080333311
  0.8366410449299639  0.3292732760707502  0.3982799482783965
  0.4159950634795042  0.6661507561364668  0.5002204439009825
  0.2532863022656195 -0.0006667786555193  0.6061675681349095
  0.1688049494189205  0.1665585400765148  0.5026658292817489
  0.5821479778192639  0.5835264103791185  0.3942499154151144
  0.7468197847034963  0.2509508719149927  0.6064305003033273
  0.8347601746585421  0.8355127781725447  0.3945468263408185
 -0.0008166690429851 -0.0025758803224618  0.6087925043702680
  0.9171975275394385  0.4168775644919130  0.5008475858857605
  0.6658973716668398  0.4169480609306441  0.5004101567414457
  0.0852352713428304  0.5838778113355427  0.3977056558536157
  0.0003232727843712  0.2524250827542001  0.6077811694946159
  0.8353175010651167  0.5814890913698388  0.3932818655729937
  0.9163614068617396  0.9163291780290361  0.5016033025093798
  0.9162208246187676  0.6668767524220079  0.4993277098162190
  0.8350738098123653  0.0832349763370616  0.4050763340196297
  0.6655077524617661  0.6684771147995684  0.4988565998149901
  0.7483497124294844 -0.0018084406376548  0.5975246666688400
  0.7507569437045556  0.5006523634110188  0.5972112144799545
  0.4186674052692475  0.9165752965165057  0.5004329222785288
  0.4999735097424292  0.4991821452056428  0.5973159454806681
  0.0822393505602796  0.0840231488896885  0.4067172886140278
  0.2497919118463355  0.7492536142963124  0.5988763763370979
  0.4149296961357452  0.4158896339497784  0.4995086899877179
  0.5018369186811373  0.0007443305844198  0.5944747551531157
  0.4171767972439822  0.1667100870089920  0.4985499804255077
  0.6638740818588035  0.9175691085588757  0.4979334980240470
  0.1672864965564246  0.6639857420384245  0.5003284489814179
  0.3324361614114271  0.5844975613859091  0.4033647053923711
  0.2515478717576790  0.2503001105014460  0.5973083509792573
  0.1700634193529863  0.4163432364783264  0.4999664119105654
  0.3304922223697753  0.0845574887142088  0.4044463961325108
 -0.0009038518491640  0.7495071648739657  0.5980787414403258
  0.0827605840172215  0.8351850648020250  0.4040516727658667
 -0.0003932456224478  0.5009663069831578  0.5973624805641582
  0.0840257681695301  0.3316416497605826  0.4041753924731387
  0.9161469931106023  0.1673879061075249  0.5056136929568693
  0.4996617063202956  0.2483421009319999  0.5959697892237018
  0.7512206709179680  0.7503756234400329  0.5951989746370165
 
  0.00000000E+00  0.00000000E+00  0.00000000E+00
  0.00000000E+00  0.00000000E+00  0.00000000E+00
  0.00000000E+00  0.00000000E+00  0.00000000E+00
  0.00000000E+00  0.00000000E+00  0.00000000E+00
  0.00000000E+00  0.00000000E+00  0.00000000E+00
  0.00000000E+00  0.00000000E+00  0.00000000E+00
  0.00000000E+00  0.00000000E+00  0.00000000E+00
  0.00000000E+00  0.00000000E+00  0.00000000E+00
  0.00000000E+00  0.00000000E+00  0.00000000E+00
  0.00000000E+00  0.00000000E+00  0.00000000E+00
  0.00000000E+00  0.00000000E+00  0.00000000E+00
  0.00000000E+00  0.00000000E+00  0.00000000E+00
  0.00000000E+00  0.00000000E+00  0.00000000E+00
  0.00000000E+00  0.00000000E+00  0.00000000E+00
  0.00000000E+00  0.00000000E+00  0.00000000E+00
  0.00000000E+00  0.00000000E+00  0.00000000E+00
  0.00000000E+00  0.00000000E+00  0.00000000E+00
  0.00000000E+00  0.00000000E+00  0.00000000E+00
  0.00000000E+00  0.00000000E+00  0.00000000E+00
  0.00000000E+00  0.00000000E+00  0.00000000E+00
  0.00000000E+00  0.00000000E+00  0.00000000E+00
  0.00000000E+00  0.00000000E+00  0.00000000E+00
  0.00000000E+00  0.00000000E+00  0.00000000E+00
  0.00000000E+00  0.00000000E+00  0.00000000E+00
  0.00000000E+00  0.00000000E+00  0.00000000E+00
  0.00000000E+00  0.00000000E+00  0.00000000E+00
  0.00000000E+00  0.00000000E+00  0.00000000E+00
  0.00000000E+00  0.00000000E+00  0.00000000E+00
  0.00000000E+00  0.00000000E+00  0.00000000E+00
  0.00000000E+00  0.00000000E+00  0.00000000E+00
  0.00000000E+00  0.00000000E+00  0.00000000E+00
  0.00000000E+00  0.00000000E+00  0.00000000E+00
  0.00000000E+00  0.00000000E+00  0.00000000E+00
  0.00000000E+00  0.00000000E+00  0.00000000E+00
  0.00000000E+00  0.00000000E+00  0.00000000E+00
  0.00000000E+00  0.00000000E+00  0.00000000E+00
  0.00000000E+00  0.00000000E+00  0.00000000E+00
  0.00000000E+00  0.00000000E+00  0.00000000E+00
  0.00000000E+00  0.00000000E+00  0.00000000E+00
  0.00000000E+00  0.00000000E+00  0.00000000E+00
  0.00000000E+00  0.00000000E+00  0.00000000E+00
  0.00000000E+00  0.00000000E+00  0.00000000E+00
  0.00000000E+00  0.00000000E+00  0.00000000E+00
  0.00000000E+00  0.00000000E+00  0.00000000E+00
  0.00000000E+00  0.00000000E+00  0.00000000E+00
  0.00000000E+00  0.00000000E+00  0.00000000E+00
  0.00000000E+00  0.00000000E+00  0.00000000E+00
  0.00000000E+00  0.00000000E+00  0.00000000E+00
