Au Pd                                   
   1.00000000000000     
    11.0025815152626798    0.0000000000000000    0.0000000000000000
     5.5012907576313399    9.5285150994265617    0.0000000000000000
     0.0000000000000000    0.0000000000000000   24.4917850942952882
   Au   Pd
    24    24
Direct
  0.0816814988092090  0.0857382952104434  0.3982566460569545
  0.4178533301588628  0.4167983584945220  0.5011333878658268
  0.4164275782069808  0.9150422359007445  0.5014880970067979
  0.4179893566177342  0.1676692019098016  0.5016421725713427
  0.6706046007341996  0.9164166458210342  0.5025547307218657
  0.8284369183747364  0.0869412933807390  0.4016939901820993
  0.3341135063689010  0.8352528081765315  0.3977467651634472
  0.2500532803411367  0.4975289191786580  0.6037557644468108
  0.1661665937811604  0.6688252354929047  0.5011922791968317
  0.3345883074729945  0.5825042164386444  0.3949876861892796
  0.7483180462736636 -0.0003293720770696  0.6048451649354506
  0.2492145130656455 -0.0015535897008971  0.6042136107233947
  0.1662214983003713  0.1669922317932064  0.5009317036917409
  0.3363655026505860  0.3300512914514836  0.3956494255064145
 -0.0013129675175040  0.7488678071617093  0.6040150403440804
  0.0832338824393938  0.3331213817226923  0.3936634015474190
  0.9194719432155838  0.4164311901528157  0.4990727574146510
  0.0814197868624609  0.5845629431584775  0.3984094933158694
  0.8309052135262074  0.5869388505486671  0.3948751932826532
  0.6682757851313340  0.6662830118073602  0.4998885857552965
  0.0798411637194041  0.8357215655468317  0.3979785178676872
  0.6686217761468496  0.4145597988992082  0.5006235756411388
  0.7501601736529944  0.2507560926541786  0.6040296536259980
  0.5842554772338364  0.5830975086511666  0.3944955045241021
  0.6702466382540444  0.1652164239143217  0.5027568459450269
  0.8319978202204040  0.3347118621855481  0.4020955914620104
  0.5003556763123798  0.7470353870742052  0.5976622183903005
  0.4991304031201343  0.5017236847778688  0.5979064901938522
  0.7498773855654092  0.5004988453209904  0.5977210203700150
  0.5830584951675464  0.8364995443708345  0.4029171144145042
  0.8310813239004353  0.8352774564814412  0.4052480969268432
  0.2516555648959893  0.7490087447687005  0.5963829468198585
  0.4987409633491436  0.2493697149846861  0.5993956700632640
  0.5828598324440253  0.3335638723844732  0.4038619518826406
  0.4990227181866968 -0.0012642374383828  0.6003872616677164
  0.5830847382791782  0.0825253121960183  0.4048410161252627
  0.1661329579800145  0.9170284307773700  0.4996792468192270
  0.2491480312969402  0.2493737525186800  0.5982335416543063
  0.1674217886555568  0.4176927108148663  0.4992345808234682
  0.3338736408921099  0.0835400101999577  0.4030665519088407
  0.9181317390012397  0.9177081752606436  0.5017713475044925
 -0.0015339726516279  0.4981654082647435  0.5962420399408690
  0.9193636970488348  0.6669898801250491  0.5008783632130309
 -0.0004556397149031  0.2503343501803799  0.5977305607255518
  0.0009618317410503 -0.0011089392157946  0.5969049455465089
  0.9181488469224919  0.1634726541668759  0.5011229779652739
  0.4166037259003986  0.6666271040135872  0.4979318671686214
  0.7481850276657659  0.7477919300990824  0.5988846048913627
 
  0.00000000E+00  0.00000000E+00  0.00000000E+00
  0.00000000E+00  0.00000000E+00  0.00000000E+00
  0.00000000E+00  0.00000000E+00  0.00000000E+00
  0.00000000E+00  0.00000000E+00  0.00000000E+00
  0.00000000E+00  0.00000000E+00  0.00000000E+00
  0.00000000E+00  0.00000000E+00  0.00000000E+00
  0.00000000E+00  0.00000000E+00  0.00000000E+00
  0.00000000E+00  0.00000000E+00  0.00000000E+00
  0.00000000E+00  0.00000000E+00  0.00000000E+00
  0.00000000E+00  0.00000000E+00  0.00000000E+00
  0.00000000E+00  0.00000000E+00  0.00000000E+00
  0.00000000E+00  0.00000000E+00  0.00000000E+00
  0.00000000E+00  0.00000000E+00  0.00000000E+00
  0.00000000E+00  0.00000000E+00  0.00000000E+00
  0.00000000E+00  0.00000000E+00  0.00000000E+00
  0.00000000E+00  0.00000000E+00  0.00000000E+00
  0.00000000E+00  0.00000000E+00  0.00000000E+00
  0.00000000E+00  0.00000000E+00  0.00000000E+00
  0.00000000E+00  0.00000000E+00  0.00000000E+00
  0.00000000E+00  0.00000000E+00  0.00000000E+00
  0.00000000E+00  0.00000000E+00  0.00000000E+00
  0.00000000E+00  0.00000000E+00  0.00000000E+00
  0.00000000E+00  0.00000000E+00  0.00000000E+00
  0.00000000E+00  0.00000000E+00  0.00000000E+00
  0.00000000E+00  0.00000000E+00  0.00000000E+00
  0.00000000E+00  0.00000000E+00  0.00000000E+00
  0.00000000E+00  0.00000000E+00  0.00000000E+00
  0.00000000E+00  0.00000000E+00  0.00000000E+00
  0.00000000E+00  0.00000000E+00  0.00000000E+00
  0.00000000E+00  0.00000000E+00  0.00000000E+00
  0.00000000E+00  0.00000000E+00  0.00000000E+00
  0.00000000E+00  0.00000000E+00  0.00000000E+00
  0.00000000E+00  0.00000000E+00  0.00000000E+00
  0.00000000E+00  0.00000000E+00  0.00000000E+00
  0.00000000E+00  0.00000000E+00  0.00000000E+00
  0.00000000E+00  0.00000000E+00  0.00000000E+00
  0.00000000E+00  0.00000000E+00  0.00000000E+00
  0.00000000E+00  0.00000000E+00  0.00000000E+00
  0.00000000E+00  0.00000000E+00  0.00000000E+00
  0.00000000E+00  0.00000000E+00  0.00000000E+00
  0.00000000E+00  0.00000000E+00  0.00000000E+00
  0.00000000E+00  0.00000000E+00  0.00000000E+00
  0.00000000E+00  0.00000000E+00  0.00000000E+00
  0.00000000E+00  0.00000000E+00  0.00000000E+00
  0.00000000E+00  0.00000000E+00  0.00000000E+00
  0.00000000E+00  0.00000000E+00  0.00000000E+00
  0.00000000E+00  0.00000000E+00  0.00000000E+00
  0.00000000E+00  0.00000000E+00  0.00000000E+00
