Au Pd                                   
   1.00000000000000     
    11.0025815152626798    0.0000000000000000    0.0000000000000000
     5.5012907576313399    9.5285150994265617    0.0000000000000000
     0.0000000000000000    0.0000000000000000   24.4917850942952882
   Au   Pd
    24    24
Direct
  0.0844417460408382  0.0803323090425705  0.3983232639584608
  0.7493270832440524  0.4989504935736306  0.6014674192841070
  0.8323300818173798  0.5849561514971044  0.3983516068727426
  0.6656114646396858  0.4160303389707862  0.4979971550535417
  0.7496174024406393  0.0048585989340639  0.6044276341104190
  0.4989595025773602  0.7492042104031704  0.6037020484521746
  0.4160522184600840  0.6683739241956148  0.4997353708033141
  0.5813627076718231  0.5857069041295988  0.3960470587532394
  0.5841196593514152  0.3327384010829818  0.3936804570315806
  0.4979966630156003  0.0047900163177948  0.6059596280476272
  0.4150714988451104  0.1672425194173783  0.4980403595601471
  0.5853046887317027  0.0799151982110568  0.3949784493150245
  0.6645465741164743  0.9159276746567410  0.5011201116024211
  0.1676150935301384  0.6649940274170071  0.5002877041253215
  0.3316589988107148  0.3355278748556871  0.3936650303658496
  0.7510483561893229  0.7509526281154258  0.6069390227649569
  0.0045179255635583  0.7504125388106127  0.6088770969276746
  0.2486987495677925  0.0002183267585667  0.6017327943153417
  0.9169837952663108  0.1664371742421575  0.4992327049052576
  0.9167357900172191  0.6636491283023708  0.5006001964903144
  0.0835689761029458  0.3327340624646988  0.3986997052382030
  0.0046683319883173  0.4985977609692737  0.6018539800912217
  0.0006482859471137  0.2493119649228865  0.6010419204385592
  0.9166836023210022  0.9171297387144488  0.5013067910352172
  0.8340000541157313  0.0818316019296678  0.4017118720396202
  0.6649025619754934  0.1663981952861386  0.4974891073865748
  0.1666605498302758  0.4145897020496367  0.4981633823523868
  0.8334234299741539  0.3323900076122427  0.4009746955976978
  0.7480234869918868  0.2509271016248879  0.5954976586309358
  0.0003245535259020  0.0001073830762808  0.5985077732191899
  0.6660810100467701  0.6661241642263668  0.5011284859660485
  0.8349769200639583  0.8333753260927143  0.4036864001341008
  0.9177411444356616  0.4155794279303224  0.4996836876693793
  0.4152826581428197  0.9174291675879441  0.5029364378037162
  0.0834786892997779  0.5848742698381073  0.4023406035937629
  0.4992327714476174  0.4987059305015751  0.5951529059158316
  0.4990718067589906  0.2530868626528166  0.5935301180481174
  0.4157436713035171  0.4150911264119221  0.4961501021151448
  0.0835158663159712  0.8318523615544786  0.4035045619529979
  0.3350205176105271  0.0798567373432365  0.4032339915881623
  0.1674925935628694  0.9185666940094808  0.5006443661816647
  0.3331796424352421  0.8343722338778570  0.4042660676252876
  0.2528789289965981  0.4992263838568859  0.5953449307793098
  0.1664449991640039  0.1660177595294709  0.4993233028094974
  0.3311078252914712  0.5863580401505568  0.4013026517792331
  0.2512221625084803  0.2520281159055610  0.5946510054561627
  0.5821509217608151  0.8335877510058053  0.4050324441985029
  0.2504740381848635  0.7486316899404151  0.5976759376139587
 
  0.00000000E+00  0.00000000E+00  0.00000000E+00
  0.00000000E+00  0.00000000E+00  0.00000000E+00
  0.00000000E+00  0.00000000E+00  0.00000000E+00
  0.00000000E+00  0.00000000E+00  0.00000000E+00
  0.00000000E+00  0.00000000E+00  0.00000000E+00
  0.00000000E+00  0.00000000E+00  0.00000000E+00
  0.00000000E+00  0.00000000E+00  0.00000000E+00
  0.00000000E+00  0.00000000E+00  0.00000000E+00
  0.00000000E+00  0.00000000E+00  0.00000000E+00
  0.00000000E+00  0.00000000E+00  0.00000000E+00
  0.00000000E+00  0.00000000E+00  0.00000000E+00
  0.00000000E+00  0.00000000E+00  0.00000000E+00
  0.00000000E+00  0.00000000E+00  0.00000000E+00
  0.00000000E+00  0.00000000E+00  0.00000000E+00
  0.00000000E+00  0.00000000E+00  0.00000000E+00
  0.00000000E+00  0.00000000E+00  0.00000000E+00
  0.00000000E+00  0.00000000E+00  0.00000000E+00
  0.00000000E+00  0.00000000E+00  0.00000000E+00
  0.00000000E+00  0.00000000E+00  0.00000000E+00
  0.00000000E+00  0.00000000E+00  0.00000000E+00
  0.00000000E+00  0.00000000E+00  0.00000000E+00
  0.00000000E+00  0.00000000E+00  0.00000000E+00
  0.00000000E+00  0.00000000E+00  0.00000000E+00
  0.00000000E+00  0.00000000E+00  0.00000000E+00
  0.00000000E+00  0.00000000E+00  0.00000000E+00
  0.00000000E+00  0.00000000E+00  0.00000000E+00
  0.00000000E+00  0.00000000E+00  0.00000000E+00
  0.00000000E+00  0.00000000E+00  0.00000000E+00
  0.00000000E+00  0.00000000E+00  0.00000000E+00
  0.00000000E+00  0.00000000E+00  0.00000000E+00
  0.00000000E+00  0.00000000E+00  0.00000000E+00
  0.00000000E+00  0.00000000E+00  0.00000000E+00
  0.00000000E+00  0.00000000E+00  0.00000000E+00
  0.00000000E+00  0.00000000E+00  0.00000000E+00
  0.00000000E+00  0.00000000E+00  0.00000000E+00
  0.00000000E+00  0.00000000E+00  0.00000000E+00
  0.00000000E+00  0.00000000E+00  0.00000000E+00
  0.00000000E+00  0.00000000E+00  0.00000000E+00
  0.00000000E+00  0.00000000E+00  0.00000000E+00
  0.00000000E+00  0.00000000E+00  0.00000000E+00
  0.00000000E+00  0.00000000E+00  0.00000000E+00
  0.00000000E+00  0.00000000E+00  0.00000000E+00
  0.00000000E+00  0.00000000E+00  0.00000000E+00
  0.00000000E+00  0.00000000E+00  0.00000000E+00
  0.00000000E+00  0.00000000E+00  0.00000000E+00
  0.00000000E+00  0.00000000E+00  0.00000000E+00
  0.00000000E+00  0.00000000E+00  0.00000000E+00
  0.00000000E+00  0.00000000E+00  0.00000000E+00
