Au Pd                                   
   1.00000000000000     
    11.0025815152626798    0.0000000000000000    0.0000000000000000
     5.5012907576313399    9.5285150994265617    0.0000000000000000
     0.0000000000000000    0.0000000000000000   24.4917850942952882
   Au   Pd
    24    24
Direct
  0.0842178524513702  0.0795134241606639  0.3978095585023709
  0.4986502244374294  0.4978083670089974  0.6009061951211611
  0.5806542340937590  0.3345617724077354  0.3962800881623897
  0.4167802034974511  0.9189453150478706  0.4988984965591688
  0.5855191761084917  0.0804409107061366  0.3959002870512243
  0.6632359482886068  0.1692130309638324  0.4993001954295890
  0.7472669785554017 -0.0009134647878230  0.6042639344450125
  0.1678282711233657  0.6674367190151863  0.5012922421250451
  0.8329216736197954  0.3344744313773834  0.3978160048253747
  0.1695935076434061  0.4154246553326792  0.4994007444963215
  0.4160371555186195  0.6669940139819023  0.5000621961490398
  0.2531982075010059 -0.0026673590432316  0.6046448975767019
  0.1673467641720187  0.1675768789825783  0.4996130705223026
  0.5812541272308668  0.5865410348053797  0.3960506648831492
  0.9161788295684624  0.9182440942915205  0.5019596251119823
  0.6675925721542286  0.6669158976976145  0.4996923839251912
  0.9155411098275045  0.1694772326940913  0.5008936437101895
  0.0015866102677495  0.5007474943036709  0.6046277741887760
  0.9160549419505616  0.6672925877149275  0.5011808729639009
  0.7488673420360564  0.5000070803239425  0.6015089416563787
  0.0006744803281873  0.2497303937167821  0.6046598312928652
  0.3349820869207719  0.0816462326621728  0.3928631713331798
  0.0008355312828138 -0.0026915479106114  0.6067568429205696
  0.0828998038277741  0.3366157505804665  0.3949855943450978
  0.8338742791865801  0.5855517240000196  0.4026407601861091
  0.5851051282598916  0.8321384506808646  0.4016734071260338
  0.8344609146595984  0.0804326566295483  0.4028621874810404
  0.5002072384271314  0.7496190464593476  0.5979743103211702
  0.6661162261380293  0.4179195406297162  0.4987903396684854
  0.8347139546154001  0.8316269757808591  0.4032928027203798
  0.7486649148459301  0.2487121918193718  0.5972684725975181
  0.2499844822083870  0.7480516715239904  0.5992984852496117
  0.4180586928928277  0.4165593554973251  0.4987282498328779
  0.4994681982849022 -0.0000675782516897  0.5954525064482065
  0.4180255653225015  0.1664189754830275  0.4969848687297826
  0.6659074140027729  0.9191763842207108  0.4996342007489480
  0.1662140612422957  0.9186917136489889  0.5024508825141663
  0.3324833327616010  0.8323887917337012  0.4026933785431452
  0.2503475606701908  0.4986864449857195  0.5976383373760236
  0.3301080701307846  0.5847472789279954  0.4021033080988740
  0.2529835709766999  0.2490045223725612  0.5963230933469185
  0.3328097815531466  0.3343690919706750  0.4012960528712431
  0.0008361887877138  0.7487016019210558  0.6005288544181108
  0.0835341930786254  0.8323216746008290  0.4043983370481863
  0.0834257616203541  0.5845893931349936  0.4026737978571363
  0.9166774053147434  0.4171979327352985  0.5006037870892737
  0.4978156749912682  0.2489122910219640  0.5952033978371970
  0.7484597576229265  0.7509149224392588  0.5981189245925786
 
  0.00000000E+00  0.00000000E+00  0.00000000E+00
  0.00000000E+00  0.00000000E+00  0.00000000E+00
  0.00000000E+00  0.00000000E+00  0.00000000E+00
  0.00000000E+00  0.00000000E+00  0.00000000E+00
  0.00000000E+00  0.00000000E+00  0.00000000E+00
  0.00000000E+00  0.00000000E+00  0.00000000E+00
  0.00000000E+00  0.00000000E+00  0.00000000E+00
  0.00000000E+00  0.00000000E+00  0.00000000E+00
  0.00000000E+00  0.00000000E+00  0.00000000E+00
  0.00000000E+00  0.00000000E+00  0.00000000E+00
  0.00000000E+00  0.00000000E+00  0.00000000E+00
  0.00000000E+00  0.00000000E+00  0.00000000E+00
  0.00000000E+00  0.00000000E+00  0.00000000E+00
  0.00000000E+00  0.00000000E+00  0.00000000E+00
  0.00000000E+00  0.00000000E+00  0.00000000E+00
  0.00000000E+00  0.00000000E+00  0.00000000E+00
  0.00000000E+00  0.00000000E+00  0.00000000E+00
  0.00000000E+00  0.00000000E+00  0.00000000E+00
  0.00000000E+00  0.00000000E+00  0.00000000E+00
  0.00000000E+00  0.00000000E+00  0.00000000E+00
  0.00000000E+00  0.00000000E+00  0.00000000E+00
  0.00000000E+00  0.00000000E+00  0.00000000E+00
  0.00000000E+00  0.00000000E+00  0.00000000E+00
  0.00000000E+00  0.00000000E+00  0.00000000E+00
  0.00000000E+00  0.00000000E+00  0.00000000E+00
  0.00000000E+00  0.00000000E+00  0.00000000E+00
  0.00000000E+00  0.00000000E+00  0.00000000E+00
  0.00000000E+00  0.00000000E+00  0.00000000E+00
  0.00000000E+00  0.00000000E+00  0.00000000E+00
  0.00000000E+00  0.00000000E+00  0.00000000E+00
  0.00000000E+00  0.00000000E+00  0.00000000E+00
  0.00000000E+00  0.00000000E+00  0.00000000E+00
  0.00000000E+00  0.00000000E+00  0.00000000E+00
  0.00000000E+00  0.00000000E+00  0.00000000E+00
  0.00000000E+00  0.00000000E+00  0.00000000E+00
  0.00000000E+00  0.00000000E+00  0.00000000E+00
  0.00000000E+00  0.00000000E+00  0.00000000E+00
  0.00000000E+00  0.00000000E+00  0.00000000E+00
  0.00000000E+00  0.00000000E+00  0.00000000E+00
  0.00000000E+00  0.00000000E+00  0.00000000E+00
  0.00000000E+00  0.00000000E+00  0.00000000E+00
  0.00000000E+00  0.00000000E+00  0.00000000E+00
  0.00000000E+00  0.00000000E+00  0.00000000E+00
  0.00000000E+00  0.00000000E+00  0.00000000E+00
  0.00000000E+00  0.00000000E+00  0.00000000E+00
  0.00000000E+00  0.00000000E+00  0.00000000E+00
  0.00000000E+00  0.00000000E+00  0.00000000E+00
  0.00000000E+00  0.00000000E+00  0.00000000E+00
