Au Pd                                   
   1.00000000000000     
    11.0025815152626798    0.0000000000000000    0.0000000000000000
     5.5012907576313399    9.5285150994265617    0.0000000000000000
     0.0000000000000000    0.0000000000000000   24.4917850942952882
   Au   Pd
    24    24
Direct
  0.7506301928583844  0.7529313335891396  0.6029182490930705
  0.4171160948987183  0.6668173939144765  0.5003243460158288
  0.4979044241653841  0.4981439093035734  0.6018080390989583
  0.5836369120964283  0.8352368941625803  0.3967597437956416
  0.6646159432602073  0.9152070097213227  0.4991436386457604
  0.3285866162259621  0.8356643947645297  0.3974403019039564
  0.4977265564731556  0.7537801910159372  0.6009754525670579
  0.1666848691334329  0.6652146220439676  0.5008954852120328
  0.8350023654357455  0.0799284937975462  0.3933839577229032
  0.6639890230688122  0.1683820558413773  0.4989173850142871
  0.3304145491928739  0.3362152370652703  0.3976633376808398
  0.5818955262792038  0.3339939029700231  0.3970836705929770
  0.1678585061142636  0.1664971008790198  0.5001280205765868
  0.8351811028865670  0.3329937509399766  0.3996371099906925
  0.9172968565746419  0.9153946384473370  0.5003361238283929
  0.7495423421220447  0.2473089966681270  0.6039204769207779
  0.0043549122235183  0.4987826673438739  0.6022574079269427
  0.8363580454329222  0.5844168946288828  0.4020126283357452
  0.0051180728477347  0.2472061543780509  0.6065042020517352
  0.7506867135867840  0.4996048201087328  0.6012838537685111
  0.0034946827108865 -0.0043643349369122  0.6054797557299750
  0.9168615455831899  0.1679379061004722  0.5012938330417936
  0.3311391879609458  0.0857652079896238  0.3954979256918524
  0.5820825002452146  0.5842927706336974  0.3988835957813688
  0.6661611671847422  0.4173808972368245  0.5007180116382471
  0.7499578438947143 -0.0001788646241843  0.5972917994870596
  0.6673973922480488  0.6655613987921020  0.5008594136252009
  0.4161697780417749  0.9169583499435225  0.4981609644527152
  0.8338304812745378  0.8336566845710592  0.4028044633412066
  0.0819971923429723  0.0835711662118636  0.4033503205550886
  0.4159797649424635  0.4153744440885543  0.4989865005700157
  0.0827426100892786  0.3348461042518354  0.4045728245912478
  0.9161231171789168  0.4180251496500643  0.5019314268787775
  0.0831711686789430  0.5854467266450273  0.4048017226019365
  0.9170454544780478  0.6636738075744272  0.5020954683384604
  0.0825257481554835  0.8328462531500073  0.4030736279837319
  0.0021984746703070  0.7486429872997313  0.5985088755848754
  0.2518296500278958 -0.0007524741685825  0.5961754879849768
  0.1666108219971250  0.4165908368479938  0.5004681074053159
  0.2541244900347612  0.2481586294966196  0.5958548164106805
  0.3306944154292508  0.5849750974026811  0.4029739127702627
  0.2510087610824768  0.4984453313137412  0.5967607220821274
  0.1671168031333172  0.9165235422017409  0.5004119148233118
  0.5833165113584673  0.0840235113327606  0.4007516211732389
  0.4139109292310064  0.1685614931967104  0.4974062068169919
  0.4990785090090409  0.0022724963338635  0.5946529704337725
  0.4984698096954392  0.2488870687747908  0.5950138788941584
  0.2503615644439662  0.7491573511062185  0.5978264005689125
 
  0.00000000E+00  0.00000000E+00  0.00000000E+00
  0.00000000E+00  0.00000000E+00  0.00000000E+00
  0.00000000E+00  0.00000000E+00  0.00000000E+00
  0.00000000E+00  0.00000000E+00  0.00000000E+00
  0.00000000E+00  0.00000000E+00  0.00000000E+00
  0.00000000E+00  0.00000000E+00  0.00000000E+00
  0.00000000E+00  0.00000000E+00  0.00000000E+00
  0.00000000E+00  0.00000000E+00  0.00000000E+00
  0.00000000E+00  0.00000000E+00  0.00000000E+00
  0.00000000E+00  0.00000000E+00  0.00000000E+00
  0.00000000E+00  0.00000000E+00  0.00000000E+00
  0.00000000E+00  0.00000000E+00  0.00000000E+00
  0.00000000E+00  0.00000000E+00  0.00000000E+00
  0.00000000E+00  0.00000000E+00  0.00000000E+00
  0.00000000E+00  0.00000000E+00  0.00000000E+00
  0.00000000E+00  0.00000000E+00  0.00000000E+00
  0.00000000E+00  0.00000000E+00  0.00000000E+00
  0.00000000E+00  0.00000000E+00  0.00000000E+00
  0.00000000E+00  0.00000000E+00  0.00000000E+00
  0.00000000E+00  0.00000000E+00  0.00000000E+00
  0.00000000E+00  0.00000000E+00  0.00000000E+00
  0.00000000E+00  0.00000000E+00  0.00000000E+00
  0.00000000E+00  0.00000000E+00  0.00000000E+00
  0.00000000E+00  0.00000000E+00  0.00000000E+00
  0.00000000E+00  0.00000000E+00  0.00000000E+00
  0.00000000E+00  0.00000000E+00  0.00000000E+00
  0.00000000E+00  0.00000000E+00  0.00000000E+00
  0.00000000E+00  0.00000000E+00  0.00000000E+00
  0.00000000E+00  0.00000000E+00  0.00000000E+00
  0.00000000E+00  0.00000000E+00  0.00000000E+00
  0.00000000E+00  0.00000000E+00  0.00000000E+00
  0.00000000E+00  0.00000000E+00  0.00000000E+00
  0.00000000E+00  0.00000000E+00  0.00000000E+00
  0.00000000E+00  0.00000000E+00  0.00000000E+00
  0.00000000E+00  0.00000000E+00  0.00000000E+00
  0.00000000E+00  0.00000000E+00  0.00000000E+00
  0.00000000E+00  0.00000000E+00  0.00000000E+00
  0.00000000E+00  0.00000000E+00  0.00000000E+00
  0.00000000E+00  0.00000000E+00  0.00000000E+00
  0.00000000E+00  0.00000000E+00  0.00000000E+00
  0.00000000E+00  0.00000000E+00  0.00000000E+00
  0.00000000E+00  0.00000000E+00  0.00000000E+00
  0.00000000E+00  0.00000000E+00  0.00000000E+00
  0.00000000E+00  0.00000000E+00  0.00000000E+00
  0.00000000E+00  0.00000000E+00  0.00000000E+00
  0.00000000E+00  0.00000000E+00  0.00000000E+00
  0.00000000E+00  0.00000000E+00  0.00000000E+00
  0.00000000E+00  0.00000000E+00  0.00000000E+00
