Au Pd                                   
   1.00000000000000     
    11.0025815152626798    0.0000000000000000    0.0000000000000000
     5.5012907576313399    9.5285150994265617    0.0000000000000000
     0.0000000000000000    0.0000000000000000   24.4917850942952882
   Au   Pd
    24    24
Direct
  0.0822616178132860  0.0827242758217304  0.3965487655586868
  0.5879246348930787  0.8343842294108548  0.3953002584291924
  0.4167962062861728  0.4146790330447623  0.5007142716270966
  0.5844644260409775  0.3289563566830073  0.3980453225177839
  0.4993521411496325  0.0011969103676223  0.6017133563510703
  0.4183302531132015  0.9151784148773003  0.4988317273642233
  0.1673096316109108  0.9136306114671693  0.4999877709475743
  0.3331475743335692  0.8338337347940090  0.3923639947410913
  0.2482634346153927  0.5019613628985639  0.6028803382199202
  0.3315619357985159  0.5842327744436721  0.3981200969945206
  0.8336501411769551  0.3321505360479986  0.3990153962511040
  0.5846774574752358  0.5831039391308105  0.3973150286365176
  0.7481054072413246  0.2503416916600985  0.6013282404119923
  0.4991654477934439  0.5031695491437405  0.6006042536303265
  0.3361540793985934  0.0854509471079681  0.3938988825023168
  0.0007232140439695 -0.0023317148138268  0.6059025595377553
  0.0840383976706080  0.3353204209189329  0.3965168172443609
  0.9165862090349604  0.4159292952947591  0.5010345483296930
  0.0008462557068192  0.2498456253285766  0.6049571145299030
  0.1676474960061298  0.1668902736961983  0.5000588388735420
  0.0812022471064013  0.5859814657815696  0.4007213823867344
  0.6672261833998065  0.6658848914948849  0.4999856157872525
  0.9162469950508884  0.9157229777602064  0.5021933109741292
 -0.0021651691576915  0.5029570952273849  0.6031380066760854
  0.7481088691198006  0.5027517874599798  0.5977680708536388
  0.6668862514447730  0.1659530165141192  0.5007018100463070
  0.8340265986061305  0.0807355682779731  0.4053686374502550
  0.4991543590837275  0.7509519476110498  0.5965343329340960
  0.7488373419266613 -0.0005266781665458  0.5981389680614793
  0.8339677675323076  0.5851144605069623  0.4032014778902533
  0.8333391974289873  0.8356000870855952  0.4056876028060775
  0.6670285048151693  0.4135672778684138  0.4996856760519238
  0.2500119933852049  0.7514852114208919  0.5966759606022626
  0.4999250289852864  0.2492359412907310  0.5974035436252988
  0.4184192406203565  0.1647989345752386  0.5002936697766943
  0.5839998701324239  0.0834068692524452  0.4044862729217240
  0.6666903224733258  0.9179959540832489  0.5007661111884165
  0.1671040837066504  0.6638315751425021  0.5005961026467819
  0.2502327201569525  0.2501533267534872  0.5970306215008071
  0.1664084419021576  0.4168270503763121  0.5012399241730308
  0.3335191703368180  0.3335351724870232  0.4045940317513541
  0.2505819993519254 -0.0009387784168835  0.5974058644571939
 -0.0025701461780996  0.7519925738522629  0.5984781809767378
  0.0816140638292925  0.8348647003358320  0.4034261161164588
  0.9188912930618554  0.6655786444768684  0.5015500103712274
  0.9154641077419333  0.1660389987813524  0.5021043592747362
  0.4166558138243013  0.6641992800516074  0.4986273409759716
  0.7481868891098780  0.7516523807915384  0.5970594150244022
 
  0.00000000E+00  0.00000000E+00  0.00000000E+00
  0.00000000E+00  0.00000000E+00  0.00000000E+00
  0.00000000E+00  0.00000000E+00  0.00000000E+00
  0.00000000E+00  0.00000000E+00  0.00000000E+00
  0.00000000E+00  0.00000000E+00  0.00000000E+00
  0.00000000E+00  0.00000000E+00  0.00000000E+00
  0.00000000E+00  0.00000000E+00  0.00000000E+00
  0.00000000E+00  0.00000000E+00  0.00000000E+00
  0.00000000E+00  0.00000000E+00  0.00000000E+00
  0.00000000E+00  0.00000000E+00  0.00000000E+00
  0.00000000E+00  0.00000000E+00  0.00000000E+00
  0.00000000E+00  0.00000000E+00  0.00000000E+00
  0.00000000E+00  0.00000000E+00  0.00000000E+00
  0.00000000E+00  0.00000000E+00  0.00000000E+00
  0.00000000E+00  0.00000000E+00  0.00000000E+00
  0.00000000E+00  0.00000000E+00  0.00000000E+00
  0.00000000E+00  0.00000000E+00  0.00000000E+00
  0.00000000E+00  0.00000000E+00  0.00000000E+00
  0.00000000E+00  0.00000000E+00  0.00000000E+00
  0.00000000E+00  0.00000000E+00  0.00000000E+00
  0.00000000E+00  0.00000000E+00  0.00000000E+00
  0.00000000E+00  0.00000000E+00  0.00000000E+00
  0.00000000E+00  0.00000000E+00  0.00000000E+00
  0.00000000E+00  0.00000000E+00  0.00000000E+00
  0.00000000E+00  0.00000000E+00  0.00000000E+00
  0.00000000E+00  0.00000000E+00  0.00000000E+00
  0.00000000E+00  0.00000000E+00  0.00000000E+00
  0.00000000E+00  0.00000000E+00  0.00000000E+00
  0.00000000E+00  0.00000000E+00  0.00000000E+00
  0.00000000E+00  0.00000000E+00  0.00000000E+00
  0.00000000E+00  0.00000000E+00  0.00000000E+00
  0.00000000E+00  0.00000000E+00  0.00000000E+00
  0.00000000E+00  0.00000000E+00  0.00000000E+00
  0.00000000E+00  0.00000000E+00  0.00000000E+00
  0.00000000E+00  0.00000000E+00  0.00000000E+00
  0.00000000E+00  0.00000000E+00  0.00000000E+00
  0.00000000E+00  0.00000000E+00  0.00000000E+00
  0.00000000E+00  0.00000000E+00  0.00000000E+00
  0.00000000E+00  0.00000000E+00  0.00000000E+00
  0.00000000E+00  0.00000000E+00  0.00000000E+00
  0.00000000E+00  0.00000000E+00  0.00000000E+00
  0.00000000E+00  0.00000000E+00  0.00000000E+00
  0.00000000E+00  0.00000000E+00  0.00000000E+00
  0.00000000E+00  0.00000000E+00  0.00000000E+00
  0.00000000E+00  0.00000000E+00  0.00000000E+00
  0.00000000E+00  0.00000000E+00  0.00000000E+00
  0.00000000E+00  0.00000000E+00  0.00000000E+00
  0.00000000E+00  0.00000000E+00  0.00000000E+00
