Au Pd                                   
   1.00000000000000     
    11.0025815152626798    0.0000000000000000    0.0000000000000000
     5.5012907576313399    9.5285150994265617    0.0000000000000000
     0.0000000000000000    0.0000000000000000   24.4917850942952882
   Au   Pd
    24    24
Direct
  0.2494946914276809  0.7489992739373948  0.6055898218716248
  0.1669332476204637  0.9166289897523061  0.4994459749448222
  0.4165521699837620  0.9165253232217080  0.5001623901785693
  0.2480342322291257  0.4996627337786175  0.6060158595687234
  0.1652687229248257  0.6681026007020555  0.4986606589219514
  0.5019656973863359  0.7484844793288092  0.6054618727317982
  0.8298228525088899  0.0855395607844475  0.3963647077456888
  0.1665149025202150  0.4160428208076456  0.4994875605003448
  0.5032527605120591  0.2494839370994579  0.6054809192440092
  0.2479300046270835  0.0039577875108880  0.6059915728865901
  0.4179501361098193  0.1657162548087265  0.5010938958074699
  0.6709597153698148  0.9159318516867248  0.4974637177533803
  0.5026421748266009 -0.0003242226595012  0.6064829941050563
  0.0838220712816030  0.8342809563918622  0.3938807671157902
  0.8325666518509861  0.5816104612005298  0.3931076677874458
  0.6671603958193213  0.6670004359119204  0.4987834291644274
  0.0850020839654003  0.5806899480122555  0.3929418581857513
  0.7527180586869735  0.4980378455492547  0.6053962861963444
  0.9181377424219961  0.4162376365691653  0.4988378468740903
  0.4176611153344669  0.4172393364018439  0.5016420012102195
 -0.0033748569209847  0.0006441783871788  0.6019195385070064
  0.9167994332112518  0.1654499618745496  0.4994105499756947
  0.6656657238801326  0.4172232182541000  0.5010364225959495
  0.5801802591553412  0.8354272419512139  0.3928853639965667
  0.5009332467855353  0.4993376777441850  0.6007546550668422
  0.6679168819256310  0.1658131319784950  0.4993999754300517
  0.8322339512330572  0.3336011124204595  0.4013332920383237
  0.7506229874883099  0.2493823624703058  0.5977289703913403
  0.8322265002839728  0.8335244716801017  0.3984910328308316
  0.7511781206431101 -0.0008732601223231  0.5948042236159522
  0.4162879721562795  0.6676989896181456  0.5024628095497229
  0.0838569684542758  0.0851546164593680  0.4021488979630513
  0.5810255561489347  0.3345181257033575  0.4032836823381510
  0.5805757676797684  0.0851601796929985  0.4018072884994521
  0.3332973050332694  0.8326765571390826  0.4027349830678642
  0.3342090340276412  0.5833694492696110  0.4036432301896559
  0.2485290202371777  0.2513164364966309  0.5990976511533814
  0.3343730685456395  0.3319043189712187  0.4025465156000758
  0.1674715246973128  0.1654974155926757  0.5012161565085360
  0.3306938007869171  0.0851311299455431  0.4031633506998987
 -0.0018009937046753  0.7495346714338030  0.5933008122946206
  0.9171171212096357  0.9163516898140249  0.4961761328511658
 -0.0007459607249734  0.5015437629570906  0.5958141992118776
  0.9179533014690120  0.6660648360767785  0.4952305365820052
  0.0005114581654613  0.2512311147639921  0.5978516048431139
  0.0842152404428695  0.3306441654436402  0.4016810514961829
  0.5810544384961921  0.5833083325053081  0.4032195972033199
  0.7526037017864815  0.7495161006823529  0.5945656727052677
 
  0.00000000E+00  0.00000000E+00  0.00000000E+00
  0.00000000E+00  0.00000000E+00  0.00000000E+00
  0.00000000E+00  0.00000000E+00  0.00000000E+00
  0.00000000E+00  0.00000000E+00  0.00000000E+00
  0.00000000E+00  0.00000000E+00  0.00000000E+00
  0.00000000E+00  0.00000000E+00  0.00000000E+00
  0.00000000E+00  0.00000000E+00  0.00000000E+00
  0.00000000E+00  0.00000000E+00  0.00000000E+00
  0.00000000E+00  0.00000000E+00  0.00000000E+00
  0.00000000E+00  0.00000000E+00  0.00000000E+00
  0.00000000E+00  0.00000000E+00  0.00000000E+00
  0.00000000E+00  0.00000000E+00  0.00000000E+00
  0.00000000E+00  0.00000000E+00  0.00000000E+00
  0.00000000E+00  0.00000000E+00  0.00000000E+00
  0.00000000E+00  0.00000000E+00  0.00000000E+00
  0.00000000E+00  0.00000000E+00  0.00000000E+00
  0.00000000E+00  0.00000000E+00  0.00000000E+00
  0.00000000E+00  0.00000000E+00  0.00000000E+00
  0.00000000E+00  0.00000000E+00  0.00000000E+00
  0.00000000E+00  0.00000000E+00  0.00000000E+00
  0.00000000E+00  0.00000000E+00  0.00000000E+00
  0.00000000E+00  0.00000000E+00  0.00000000E+00
  0.00000000E+00  0.00000000E+00  0.00000000E+00
  0.00000000E+00  0.00000000E+00  0.00000000E+00
  0.00000000E+00  0.00000000E+00  0.00000000E+00
  0.00000000E+00  0.00000000E+00  0.00000000E+00
  0.00000000E+00  0.00000000E+00  0.00000000E+00
  0.00000000E+00  0.00000000E+00  0.00000000E+00
  0.00000000E+00  0.00000000E+00  0.00000000E+00
  0.00000000E+00  0.00000000E+00  0.00000000E+00
  0.00000000E+00  0.00000000E+00  0.00000000E+00
  0.00000000E+00  0.00000000E+00  0.00000000E+00
  0.00000000E+00  0.00000000E+00  0.00000000E+00
  0.00000000E+00  0.00000000E+00  0.00000000E+00
  0.00000000E+00  0.00000000E+00  0.00000000E+00
  0.00000000E+00  0.00000000E+00  0.00000000E+00
  0.00000000E+00  0.00000000E+00  0.00000000E+00
  0.00000000E+00  0.00000000E+00  0.00000000E+00
  0.00000000E+00  0.00000000E+00  0.00000000E+00
  0.00000000E+00  0.00000000E+00  0.00000000E+00
  0.00000000E+00  0.00000000E+00  0.00000000E+00
  0.00000000E+00  0.00000000E+00  0.00000000E+00
  0.00000000E+00  0.00000000E+00  0.00000000E+00
  0.00000000E+00  0.00000000E+00  0.00000000E+00
  0.00000000E+00  0.00000000E+00  0.00000000E+00
  0.00000000E+00  0.00000000E+00  0.00000000E+00
  0.00000000E+00  0.00000000E+00  0.00000000E+00
  0.00000000E+00  0.00000000E+00  0.00000000E+00
