Au Pd                                   
   1.00000000000000     
    11.0025815152626798    0.0000000000000000    0.0000000000000000
     5.5012907576313399    9.5285150994265617    0.0000000000000000
     0.0000000000000000    0.0000000000000000   24.4917850942952882
   Au   Pd
    24    24
Selective dynamics
Direct
  0.0833333333333357  0.0833333333333357  0.4083001692812189   F   F   F
  0.3333333333333357  0.0833333333333357  0.4083001692812189   F   F   F
 -0.0002376658087285  0.0012287218282434  0.6133475905917065   T   T   T
  0.9175220311887979  0.1685002122941516  0.5099736754517751   T   T   T
  0.9167320331835893  0.6678482377497061  0.5045400496846852   T   T   T
  0.2501769460555152  0.7516558395826679  0.6135273312244940   T   T   T
  0.3333333333333357  0.5833333333333357  0.4083001692812189   F   F   F
  0.2478215235501765  0.4981677793117868  0.6080824099285064   T   T   T
  0.7524416830052341  0.5019555151113173  0.6114873422559758   T   T   T
  0.7515709557122034  0.2490749584525521  0.6189382740298441   T   T   T
  0.6687021925374016  0.4173403440810428  0.5103006436381832   T   T   T
  0.6673294295096261  0.1658854864615048  0.5127132011300752   T   T   T
 -0.0034582771006094  0.7500410864567957  0.6085936632151616   T   T   T
  0.4178081528062068  0.9168121658348568  0.5095043789292613   T   T   T
  0.5833333333333357  0.8333333333333357  0.4083001692812189   F   F   F
  0.5001463333435344  0.4999631627613162  0.6144573056973591   T   T   T
  0.4166754322136672  0.6660205193161728  0.5101520071500915   T   T   T
  0.5833333333333357  0.5833333333333357  0.4083001692812189   F   F   F
  0.4983432416673214  0.2467567700534893  0.6152352300867594   T   T   T
  0.5833333333333357  0.3333333333333357  0.4083001692812189   F   F   F
  0.4147639887850764  0.1701088593757578  0.5095759038346714   T   T   T
  0.5833333333333357  0.0833333333333357  0.4083001692812189   F   F   F
  0.1654238643629520  0.9159417615660865  0.5081632659609632   T   T   T
  0.8333333333333357  0.0833333333333357  0.4083001692812189   F   F   F
  0.9171713793783746  0.9155014883978368  0.5079703199455041   T   T   T
  0.4147953528543961  0.4173169196837410  0.5094727236972709   T   T   T
  0.5007561668246142 -0.0019309392418359  0.6056454082435477   T   T   T
  0.1645220856248964  0.1714049446612826  0.5075994448476863   T   T   T
  0.1668148760518922  0.4179424745231762  0.5047787516343029   T   T   T
  0.6683830386550413  0.9164244329380337  0.5078344106110337   T   T   T
  0.3333333333333357  0.3333333333333357  0.4083001692812189   F   F   F
  0.3333333333333357  0.8333333333333357  0.4083001692812189   F   F   F
  0.0833333333333357  0.8333333333333357  0.4083001692812189   F   F   F
  0.2496465705461894  0.0021640591946402  0.6052029001231816   T   T   T
 -0.0003967388477612  0.4986115539498573  0.6012769865670693   T   T   T
  0.9183207955406424  0.4177230938296608  0.5056241452320890   T   T   T
  0.0833333333333357  0.5833333333333357  0.4083001692812189   F   F   F
  0.5008148879274460  0.7506583540478171  0.6063722643738999   T   T   T
  0.0007031533509074  0.2510785111297713  0.6049786639053847   T   T   T
  0.7491156745215705 -0.0008605150007910  0.6067357111546378   T   T   T
  0.8333333333333357  0.3333333333333357  0.4083001692812189   F   F   F
  0.0833333333333357  0.3333333333333357  0.4083001692812189   F   F   F
  0.8333333333333357  0.5833333333333357  0.4083001692812189   F   F   F
  0.6700909615048625  0.6654155571153642  0.5082601902986190   T   T   T
  0.8333333333333357  0.8333333333333357  0.4083001692812189   F   F   F
  0.2468243616033771  0.2493495292031618  0.6042473355214735   T   T   T
  0.1662413899057884  0.6654640292352014  0.5070199512322892   T   T   T
  0.7483580385833719  0.7514304286976415  0.6032063583159917   T   T   T
 
  0.00000000E+00  0.00000000E+00  0.00000000E+00
  0.00000000E+00  0.00000000E+00  0.00000000E+00
  0.00000000E+00  0.00000000E+00  0.00000000E+00
  0.00000000E+00  0.00000000E+00  0.00000000E+00
  0.00000000E+00  0.00000000E+00  0.00000000E+00
  0.00000000E+00  0.00000000E+00  0.00000000E+00
  0.00000000E+00  0.00000000E+00  0.00000000E+00
  0.00000000E+00  0.00000000E+00  0.00000000E+00
  0.00000000E+00  0.00000000E+00  0.00000000E+00
  0.00000000E+00  0.00000000E+00  0.00000000E+00
  0.00000000E+00  0.00000000E+00  0.00000000E+00
  0.00000000E+00  0.00000000E+00  0.00000000E+00
  0.00000000E+00  0.00000000E+00  0.00000000E+00
  0.00000000E+00  0.00000000E+00  0.00000000E+00
  0.00000000E+00  0.00000000E+00  0.00000000E+00
  0.00000000E+00  0.00000000E+00  0.00000000E+00
  0.00000000E+00  0.00000000E+00  0.00000000E+00
  0.00000000E+00  0.00000000E+00  0.00000000E+00
  0.00000000E+00  0.00000000E+00  0.00000000E+00
  0.00000000E+00  0.00000000E+00  0.00000000E+00
  0.00000000E+00  0.00000000E+00  0.00000000E+00
  0.00000000E+00  0.00000000E+00  0.00000000E+00
  0.00000000E+00  0.00000000E+00  0.00000000E+00
  0.00000000E+00  0.00000000E+00  0.00000000E+00
  0.00000000E+00  0.00000000E+00  0.00000000E+00
  0.00000000E+00  0.00000000E+00  0.00000000E+00
  0.00000000E+00  0.00000000E+00  0.00000000E+00
  0.00000000E+00  0.00000000E+00  0.00000000E+00
  0.00000000E+00  0.00000000E+00  0.00000000E+00
  0.00000000E+00  0.00000000E+00  0.00000000E+00
  0.00000000E+00  0.00000000E+00  0.00000000E+00
  0.00000000E+00  0.00000000E+00  0.00000000E+00
  0.00000000E+00  0.00000000E+00  0.00000000E+00
  0.00000000E+00  0.00000000E+00  0.00000000E+00
  0.00000000E+00  0.00000000E+00  0.00000000E+00
  0.00000000E+00  0.00000000E+00  0.00000000E+00
  0.00000000E+00  0.00000000E+00  0.00000000E+00
  0.00000000E+00  0.00000000E+00  0.00000000E+00
  0.00000000E+00  0.00000000E+00  0.00000000E+00
  0.00000000E+00  0.00000000E+00  0.00000000E+00
  0.00000000E+00  0.00000000E+00  0.00000000E+00
  0.00000000E+00  0.00000000E+00  0.00000000E+00
  0.00000000E+00  0.00000000E+00  0.00000000E+00
  0.00000000E+00  0.00000000E+00  0.00000000E+00
  0.00000000E+00  0.00000000E+00  0.00000000E+00
  0.00000000E+00  0.00000000E+00  0.00000000E+00
  0.00000000E+00  0.00000000E+00  0.00000000E+00
  0.00000000E+00  0.00000000E+00  0.00000000E+00
