Au  O Pd                                
   1.00000000000000     
    11.0025815152626798    0.0000000000000000    0.0000000000000000
     5.5012907576313399    9.5285150994265617    0.0000000000000000
     0.0000000000000000    0.0000000000000000   26.1917850942952910
   Au   O    Pd
    24     8    24
Selective dynamics
Direct
  0.0833333333333357  0.8333333333333357  0.3817991009012260   F   F   F
  0.1709506814511603  0.9152135820655353  0.4726025480761686   T   T   T
  0.4976257183990467  0.5098289075968130  0.5705310535426054   T   T   T
  0.9944771936962986  0.0154743907024367  0.5659025342662996   T   T   T
  0.8333333333333357  0.8333333333333357  0.3817991009012260   F   F   F
  0.0833333333333357  0.3333333333333357  0.3817991009012260   F   F   F
  0.9148252426281940  0.4230673386673920  0.4779629116478589   T   T   T
  0.4846789002412881  0.0370554321751882  0.5624617692495918   T   T   T
  0.4164087076880917  0.1732922395448188  0.4750332016188490   T   T   T
  0.6656014795106759  0.6730085132335233  0.4747783660017544   T   T   T
  0.5833333333333357  0.0833333333333357  0.3817991009012260   F   F   F
  0.2750191174958275  0.4762348021804635  0.5630704990501639   T   T   T
  0.5059565060646695  0.7554961000599335  0.5677146742041380   T   T   T
  0.9153904828081992  0.9169094802578861  0.4776640925133867   T   T   T
  0.7429739813986361  0.2483117390642015  0.5686157332386165   T   T   T
  0.6654803339536695  0.4185219255471377  0.4764788357468427   T   T   T
  0.1675248166586099  0.1691897713628513  0.4753621912203253   T   T   T
  0.8333333333333357  0.3333333333333357  0.3817991009012260   F   F   F
  0.5833333333333357  0.5833333333333357  0.3817991009012260   F   F   F
  0.3333333333333357  0.3333333333333357  0.3817991009012260   F   F   F
  0.1647565877746287  0.4235811188951581  0.4755968654308285   T   T   T
  0.2345123284815915  0.2414660750168421  0.6105050803912278   T   T   T
  0.8333333333333357  0.0833333333333357  0.3817991009012260   F   F   F
  0.3333333333333357  0.5833333333333357  0.3817991009012260   F   F   F
  0.0959236651528874  0.5811948442505439  0.6138726130900005   T   T   T
  0.8385437875180318  0.5942551594661427  0.6108343846232639   T   T   T
  0.8551340631084274  0.3330359527356470  0.6147657776286701   T   T   T
  0.0777573158622829  0.8453120992586801  0.6172310574187552   T   T   T
  0.3744762701756722  0.2431947521462279  0.6597474861656530   T   T   T
  0.5794512208136303  0.3599544637753860  0.6317058254819237   T   T   T
  0.3178662794467296  0.8631029190895941  0.6137627207469787   T   T   T
  0.5935885578616665  0.8631832455405883  0.6119524513298515   T   T   T
  0.2508003680948300  0.7521512952641202  0.5742387387140335   T   T   T
  0.3333333333333357  0.8333333333333357  0.3817991009012260   F   F   F
  0.1684716628760489  0.6683816106187809  0.4775314028912256   T   T   T
  0.2474763730116222  0.0132288853247222  0.5620786341089467   T   T   T
  0.5066423938736303  0.2411250796977867  0.6138233548780602   T   T   T
  0.3333333333333357  0.0833333333333357  0.3817991009012260   F   F   F
 -0.0015411525103763  0.7554918734832903  0.5724870283155984   T   T   T
  0.0160001939752924  0.4914948463978018  0.5702029172734959   T   T   T
  0.9185568349036970  0.6704961922323317  0.4765276946407932   T   T   T
  0.0833333333333357  0.5833333333333357  0.3817991009012260   F   F   F
  0.0120853325373599  0.2519513903884363  0.5661634148734419   T   T   T
  0.9165435814165934  0.1678994802676506  0.4760283543594426   T   T   T
  0.4195664370635850  0.4184813559638210  0.4751071260699991   T   T   T
  0.0833333333333357  0.0833333333333357  0.3817991009012260   F   F   F
  0.7432465842939355  0.0065266021740617  0.5653265322490214   T   T   T
  0.6653613571350512  0.1700636002073279  0.4777485336955805   T   T   T
  0.4162603782023441  0.6689969185105935  0.4803479048360211   T   T   T
  0.6657210694676491  0.9206226378612289  0.4747134134623446   T   T   T
  0.5833333333333357  0.8333333333333357  0.3817991009012260   F   F   F
  0.7450799097884717  0.5072107016351675  0.5736303287262612   T   T   T
  0.8333333333333357  0.5833333333333357  0.3817991009012260   F   F   F
  0.4171585725020471  0.9204912387235760  0.4705805992118974   T   T   T
  0.7581938176591246  0.7602315572803929  0.5645205695796470   T   T   T
  0.5833333333333357  0.3333333333333357  0.3817991009012260   F   F   F
 
  0.00000000E+00  0.00000000E+00  0.00000000E+00
  0.00000000E+00  0.00000000E+00  0.00000000E+00
  0.00000000E+00  0.00000000E+00  0.00000000E+00
  0.00000000E+00  0.00000000E+00  0.00000000E+00
  0.00000000E+00  0.00000000E+00  0.00000000E+00
  0.00000000E+00  0.00000000E+00  0.00000000E+00
  0.00000000E+00  0.00000000E+00  0.00000000E+00
  0.00000000E+00  0.00000000E+00  0.00000000E+00
  0.00000000E+00  0.00000000E+00  0.00000000E+00
  0.00000000E+00  0.00000000E+00  0.00000000E+00
  0.00000000E+00  0.00000000E+00  0.00000000E+00
  0.00000000E+00  0.00000000E+00  0.00000000E+00
  0.00000000E+00  0.00000000E+00  0.00000000E+00
  0.00000000E+00  0.00000000E+00  0.00000000E+00
  0.00000000E+00  0.00000000E+00  0.00000000E+00
  0.00000000E+00  0.00000000E+00  0.00000000E+00
  0.00000000E+00  0.00000000E+00  0.00000000E+00
  0.00000000E+00  0.00000000E+00  0.00000000E+00
  0.00000000E+00  0.00000000E+00  0.00000000E+00
  0.00000000E+00  0.00000000E+00  0.00000000E+00
  0.00000000E+00  0.00000000E+00  0.00000000E+00
  0.00000000E+00  0.00000000E+00  0.00000000E+00
  0.00000000E+00  0.00000000E+00  0.00000000E+00
  0.00000000E+00  0.00000000E+00  0.00000000E+00
  0.00000000E+00  0.00000000E+00  0.00000000E+00
  0.00000000E+00  0.00000000E+00  0.00000000E+00
  0.00000000E+00  0.00000000E+00  0.00000000E+00
  0.00000000E+00  0.00000000E+00  0.00000000E+00
  0.00000000E+00  0.00000000E+00  0.00000000E+00
  0.00000000E+00  0.00000000E+00  0.00000000E+00
  0.00000000E+00  0.00000000E+00  0.00000000E+00
  0.00000000E+00  0.00000000E+00  0.00000000E+00
  0.00000000E+00  0.00000000E+00  0.00000000E+00
  0.00000000E+00  0.00000000E+00  0.00000000E+00
  0.00000000E+00  0.00000000E+00  0.00000000E+00
  0.00000000E+00  0.00000000E+00  0.00000000E+00
  0.00000000E+00  0.00000000E+00  0.00000000E+00
  0.00000000E+00  0.00000000E+00  0.00000000E+00
  0.00000000E+00  0.00000000E+00  0.00000000E+00
  0.00000000E+00  0.00000000E+00  0.00000000E+00
  0.00000000E+00  0.00000000E+00  0.00000000E+00
  0.00000000E+00  0.00000000E+00  0.00000000E+00
  0.00000000E+00  0.00000000E+00  0.00000000E+00
  0.00000000E+00  0.00000000E+00  0.00000000E+00
  0.00000000E+00  0.00000000E+00  0.00000000E+00
  0.00000000E+00  0.00000000E+00  0.00000000E+00
  0.00000000E+00  0.00000000E+00  0.00000000E+00
  0.00000000E+00  0.00000000E+00  0.00000000E+00
  0.00000000E+00  0.00000000E+00  0.00000000E+00
  0.00000000E+00  0.00000000E+00  0.00000000E+00
  0.00000000E+00  0.00000000E+00  0.00000000E+00
  0.00000000E+00  0.00000000E+00  0.00000000E+00
  0.00000000E+00  0.00000000E+00  0.00000000E+00
  0.00000000E+00  0.00000000E+00  0.00000000E+00
  0.00000000E+00  0.00000000E+00  0.00000000E+00
  0.00000000E+00  0.00000000E+00  0.00000000E+00
