Au  O Pd                                
   1.00000000000000     
    11.0025815152626798    0.0000000000000000    0.0000000000000000
     5.5012907576313399    9.5285150994265617    0.0000000000000000
     0.0000000000000000    0.0000000000000000   26.1917850942952910
   Au   O    Pd
    24     8    24
Selective dynamics
Direct
  0.0833333333333357  0.8333333333333357  0.3817991009012260   F   F   F
  0.1713677180198906  0.9142147649245870  0.4730871845078086   T   T   T
  0.4979190031154329  0.5105920164031150  0.5736927178382235   T   T   T
 -0.0058695142979547  0.0154584913273979  0.5658308617302189   T   T   T
  0.8333333333333357  0.8333333333333357  0.3817991009012260   F   F   F
  0.0833333333333357  0.3333333333333357  0.3817991009012260   F   F   F
  0.9149995042474318  0.4223638946052621  0.4786522158121122   T   T   T
  0.4834438606764685  0.0387893006064425  0.5623722363157652   T   T   T
  0.4164888353967439  0.1730652827892091  0.4744761577308699   T   T   T
  0.6649621590919100  0.6731066447182510  0.4753453747560100   T   T   T
  0.5833333333333357  0.0833333333333357  0.3817991009012260   F   F   F
  0.2757236480176163  0.4784581703623622  0.5632116291698882   T   T   T
  0.5058515395519925  0.7566868354887759  0.5705479927826054   T   T   T
  0.9156403168600019  0.9163009488077810  0.4778231251453549   T   T   T
  0.7417190116427745  0.2494962831199411  0.5681913037239668   T   T   T
  0.6653398475083621  0.4188736810579692  0.4766937512345617   T   T   T
  0.1674832876157655  0.1683554400453920  0.4757218527318013   T   T   T
  0.8333333333333357  0.3333333333333357  0.3817991009012260   F   F   F
  0.5833333333333357  0.5833333333333357  0.3817991009012260   F   F   F
  0.3333333333333357  0.3333333333333357  0.3817991009012260   F   F   F
  0.1651336685709015  0.4229917715454332  0.4760907927602425   T   T   T
  0.2343201303929323  0.2401886818627388  0.6127103987249565   T   T   T
  0.8333333333333357  0.0833333333333357  0.3817991009012260   F   F   F
  0.3333333333333357  0.5833333333333357  0.3817991009012260   F   F   F
  0.0964928128170433  0.5821008143282418  0.6139690103528885   T   T   T
  0.8389809458934735  0.5948809099875761  0.6104485688304540   T   T   T
  0.8518718720178057  0.3354070861247127  0.6147076556668478   T   T   T
  0.0738245073995620  0.8478481898859126  0.6186882954192322   T   T   T
  0.3697208787400752  0.2486966074976395  0.6626665561746973   T   T   T
  0.5822380283169898  0.3549067602662746  0.6327950460185311   T   T   T
  0.3164968248991215  0.8679276114568226  0.6164738651611942   T   T   T
  0.5971822702019505  0.8672002754980224  0.6122839865817782   T   T   T
  0.2516563115633409  0.7527428506334766  0.5789121538075154   T   T   T
  0.3333333333333357  0.8333333333333357  0.3817991009012260   F   F   F
  0.1689013651120438  0.6677902262981009  0.4770827499583554   T   T   T
  0.2475404686155779  0.0130948836937136  0.5628717224293032   T   T   T
  0.5021642159930042  0.2424053320968811  0.6158932203857495   T   T   T
  0.3333333333333357  0.0833333333333357  0.3817991009012260   F   F   F
  0.0007052455758789  0.7553026953199826  0.5721029534000277   T   T   T
  0.0184875651807086  0.4894194842136234  0.5709861374406073   T   T   T
  0.9190959195055034  0.6694676150007890  0.4767546254097316   T   T   T
  0.0833333333333357  0.5833333333333357  0.3817991009012260   F   F   F
  0.0121275808241944  0.2514242994714470  0.5674774195075708   T   T   T
  0.9171429015064541  0.1672085249451017  0.4762484896519452   T   T   T
  0.4198802322828593  0.4189984354543854  0.4752261652355357   T   T   T
  0.0833333333333357  0.0833333333333357  0.3817991009012260   F   F   F
  0.7420809306393430  0.0080760156373021  0.5657022635271203   T   T   T
  0.6660624798384782  0.1698196371949257  0.4775259697084901   T   T   T
  0.4162321541479126  0.6686264622850405  0.4836837645037479   T   T   T
  0.6659367158480218  0.9204794874061610  0.4747336936794942   T   T   T
  0.5833333333333357  0.8333333333333357  0.3817991009012260   F   F   F
  0.7449617054379217  0.5085802716232217  0.5731617148306083   T   T   T
  0.8333333333333357  0.5833333333333357  0.3817991009012260   F   F   F
  0.4170115196553826  0.9199034260576361  0.4713904947532938   T   T   T
  0.7588417059874716  0.7611365184301635  0.5640443554621247   T   T   T
  0.5833333333333357  0.3333333333333357  0.3817991009012260   F   F   F
 
  0.00000000E+00  0.00000000E+00  0.00000000E+00
  0.00000000E+00  0.00000000E+00  0.00000000E+00
  0.00000000E+00  0.00000000E+00  0.00000000E+00
  0.00000000E+00  0.00000000E+00  0.00000000E+00
  0.00000000E+00  0.00000000E+00  0.00000000E+00
  0.00000000E+00  0.00000000E+00  0.00000000E+00
  0.00000000E+00  0.00000000E+00  0.00000000E+00
  0.00000000E+00  0.00000000E+00  0.00000000E+00
  0.00000000E+00  0.00000000E+00  0.00000000E+00
  0.00000000E+00  0.00000000E+00  0.00000000E+00
  0.00000000E+00  0.00000000E+00  0.00000000E+00
  0.00000000E+00  0.00000000E+00  0.00000000E+00
  0.00000000E+00  0.00000000E+00  0.00000000E+00
  0.00000000E+00  0.00000000E+00  0.00000000E+00
  0.00000000E+00  0.00000000E+00  0.00000000E+00
  0.00000000E+00  0.00000000E+00  0.00000000E+00
  0.00000000E+00  0.00000000E+00  0.00000000E+00
  0.00000000E+00  0.00000000E+00  0.00000000E+00
  0.00000000E+00  0.00000000E+00  0.00000000E+00
  0.00000000E+00  0.00000000E+00  0.00000000E+00
  0.00000000E+00  0.00000000E+00  0.00000000E+00
  0.00000000E+00  0.00000000E+00  0.00000000E+00
  0.00000000E+00  0.00000000E+00  0.00000000E+00
  0.00000000E+00  0.00000000E+00  0.00000000E+00
  0.00000000E+00  0.00000000E+00  0.00000000E+00
  0.00000000E+00  0.00000000E+00  0.00000000E+00
  0.00000000E+00  0.00000000E+00  0.00000000E+00
  0.00000000E+00  0.00000000E+00  0.00000000E+00
  0.00000000E+00  0.00000000E+00  0.00000000E+00
  0.00000000E+00  0.00000000E+00  0.00000000E+00
  0.00000000E+00  0.00000000E+00  0.00000000E+00
  0.00000000E+00  0.00000000E+00  0.00000000E+00
  0.00000000E+00  0.00000000E+00  0.00000000E+00
  0.00000000E+00  0.00000000E+00  0.00000000E+00
  0.00000000E+00  0.00000000E+00  0.00000000E+00
  0.00000000E+00  0.00000000E+00  0.00000000E+00
  0.00000000E+00  0.00000000E+00  0.00000000E+00
  0.00000000E+00  0.00000000E+00  0.00000000E+00
  0.00000000E+00  0.00000000E+00  0.00000000E+00
  0.00000000E+00  0.00000000E+00  0.00000000E+00
  0.00000000E+00  0.00000000E+00  0.00000000E+00
  0.00000000E+00  0.00000000E+00  0.00000000E+00
  0.00000000E+00  0.00000000E+00  0.00000000E+00
  0.00000000E+00  0.00000000E+00  0.00000000E+00
  0.00000000E+00  0.00000000E+00  0.00000000E+00
  0.00000000E+00  0.00000000E+00  0.00000000E+00
  0.00000000E+00  0.00000000E+00  0.00000000E+00
  0.00000000E+00  0.00000000E+00  0.00000000E+00
  0.00000000E+00  0.00000000E+00  0.00000000E+00
  0.00000000E+00  0.00000000E+00  0.00000000E+00
  0.00000000E+00  0.00000000E+00  0.00000000E+00
  0.00000000E+00  0.00000000E+00  0.00000000E+00
  0.00000000E+00  0.00000000E+00  0.00000000E+00
  0.00000000E+00  0.00000000E+00  0.00000000E+00
  0.00000000E+00  0.00000000E+00  0.00000000E+00
  0.00000000E+00  0.00000000E+00  0.00000000E+00
