Au Pd                                   
   1.00000000000000     
    11.0025815152626798    0.0000000000000000    0.0000000000000000
     5.5012907576313399    9.5285150994265617    0.0000000000000000
     0.0000000000000000    0.0000000000000000   24.4917850942952882
   Au   Pd
    24    24
Direct
  0.0836887514963605  0.0848976431010508  0.3931711417952216
  0.3355340847475133  0.8321488076528313  0.3923248269074611
  0.1681479815776933  0.9180522971894884  0.4972623452818219
  0.5849914490479307  0.0828625859122684  0.4010179423340088
  0.4166867346434185  0.1668599107825325  0.5020188662725881
  0.4970779776283327 -0.0028590999606287  0.6025109829244175
  0.5821943827487142  0.3337736392665756  0.4004169108884332
  0.2476557789712447  0.5034028677312293  0.6057259937150117
  0.4991793266240714  0.2526595557338948  0.6050630290681616
  0.4182589364745599  0.6666483371169659  0.4980602995912194
  0.7513252864119913 -0.0011174766957330  0.6037910192781967
  0.8358856446346460  0.3345563448923173  0.3961447810899068
  0.6668806095239030  0.4168872474759522  0.5007557608563017
  0.7515666425417618  0.2512693267762683  0.6054418770911654
  0.8341204479666791  0.8312238582612840  0.3975550461668672
  0.5851121612064863  0.5846306761100644  0.3940076852173818
  0.1682581360908654  0.6630805236541218  0.4999640309992999
  0.7496108756644893  0.7469186809093881  0.6028315005028854
  0.9143119746886870  0.9174905882813291  0.4999278468603100
  0.9172881999992969  0.1680912453289197  0.4995937196776651
  0.2450774374893022  0.2503913038296783  0.6042638941900544
  0.9154122331999489  0.6642094954947938  0.5007506561982183
  0.3337269984768026  0.0852566960558647  0.3976808648741487
  0.0844154509598594  0.8306817365189115  0.3914992680828535
  0.6661367597435496  0.1667289823144185  0.5025014880263093
 -0.0011947725946777  0.2507988859295729  0.5963717150907514
  0.9174269431533687  0.4163505441643214  0.5003869323713034
  0.3332027589176458  0.5820918071396298  0.4019994431476480
  0.0842491206051515  0.3352181823500264  0.4054823885131212
  0.0016417455879655 -0.0010081229591807  0.5969912544923122
  0.8350366518639304  0.5830495458107395  0.4037562091875379
  0.6660208852539411  0.6680645697959646  0.5000101688444251
  0.7493491614809593  0.5001298955856103  0.5966201134678044
  0.8348407143133072  0.0828679462254754  0.4024382712043661
  0.4976107124545467  0.7488310051352695  0.5954057795376830
  0.4986411135899502  0.5031229266930737  0.5979724937136444
  0.5849244620033268  0.8325014919567315  0.4042088950247855
  0.0856070698185687  0.5804033840585932  0.4038835571906079
 -0.0019781332933744  0.4994102042191888  0.5985196823171309
  0.4167078218807517  0.4156842170333527  0.5027744561273608
  0.0000014610507204  0.7499791792670617  0.5980173904363476
  0.6655618115838973  0.9159390490514270  0.5016830168005744
  0.1674507535902464  0.1680366796925320  0.4995508589248213
  0.2475537104576725 -0.0000762126232429  0.5947184434583049
  0.3313983045257522  0.3360918827054661  0.4067063038183737
  0.1666398084175909  0.4146844401547956  0.5035629552647276
  0.4175022803523222  0.9174157030366551  0.4986652562087124
  0.2492613524283284  0.7516670218431496  0.5959926369677457
 
  0.00000000E+00  0.00000000E+00  0.00000000E+00
  0.00000000E+00  0.00000000E+00  0.00000000E+00
  0.00000000E+00  0.00000000E+00  0.00000000E+00
  0.00000000E+00  0.00000000E+00  0.00000000E+00
  0.00000000E+00  0.00000000E+00  0.00000000E+00
  0.00000000E+00  0.00000000E+00  0.00000000E+00
  0.00000000E+00  0.00000000E+00  0.00000000E+00
  0.00000000E+00  0.00000000E+00  0.00000000E+00
  0.00000000E+00  0.00000000E+00  0.00000000E+00
  0.00000000E+00  0.00000000E+00  0.00000000E+00
  0.00000000E+00  0.00000000E+00  0.00000000E+00
  0.00000000E+00  0.00000000E+00  0.00000000E+00
  0.00000000E+00  0.00000000E+00  0.00000000E+00
  0.00000000E+00  0.00000000E+00  0.00000000E+00
  0.00000000E+00  0.00000000E+00  0.00000000E+00
  0.00000000E+00  0.00000000E+00  0.00000000E+00
  0.00000000E+00  0.00000000E+00  0.00000000E+00
  0.00000000E+00  0.00000000E+00  0.00000000E+00
  0.00000000E+00  0.00000000E+00  0.00000000E+00
  0.00000000E+00  0.00000000E+00  0.00000000E+00
  0.00000000E+00  0.00000000E+00  0.00000000E+00
  0.00000000E+00  0.00000000E+00  0.00000000E+00
  0.00000000E+00  0.00000000E+00  0.00000000E+00
  0.00000000E+00  0.00000000E+00  0.00000000E+00
  0.00000000E+00  0.00000000E+00  0.00000000E+00
  0.00000000E+00  0.00000000E+00  0.00000000E+00
  0.00000000E+00  0.00000000E+00  0.00000000E+00
  0.00000000E+00  0.00000000E+00  0.00000000E+00
  0.00000000E+00  0.00000000E+00  0.00000000E+00
  0.00000000E+00  0.00000000E+00  0.00000000E+00
  0.00000000E+00  0.00000000E+00  0.00000000E+00
  0.00000000E+00  0.00000000E+00  0.00000000E+00
  0.00000000E+00  0.00000000E+00  0.00000000E+00
  0.00000000E+00  0.00000000E+00  0.00000000E+00
  0.00000000E+00  0.00000000E+00  0.00000000E+00
  0.00000000E+00  0.00000000E+00  0.00000000E+00
  0.00000000E+00  0.00000000E+00  0.00000000E+00
  0.00000000E+00  0.00000000E+00  0.00000000E+00
  0.00000000E+00  0.00000000E+00  0.00000000E+00
  0.00000000E+00  0.00000000E+00  0.00000000E+00
  0.00000000E+00  0.00000000E+00  0.00000000E+00
  0.00000000E+00  0.00000000E+00  0.00000000E+00
  0.00000000E+00  0.00000000E+00  0.00000000E+00
  0.00000000E+00  0.00000000E+00  0.00000000E+00
  0.00000000E+00  0.00000000E+00  0.00000000E+00
  0.00000000E+00  0.00000000E+00  0.00000000E+00
  0.00000000E+00  0.00000000E+00  0.00000000E+00
  0.00000000E+00  0.00000000E+00  0.00000000E+00
