Au Pd                                   
   1.00000000000000     
    11.0025815152626798    0.0000000000000000    0.0000000000000000
     5.5012907576313399    9.5285150994265617    0.0000000000000000
     0.0000000000000000    0.0000000000000000   24.4917850942952882
   Au   Pd
    24    24
Selective dynamics
Direct
  0.0833333333333357  0.0833333333333357  0.4083001692812189   F   F   F
 -0.0012318165862215  0.7490619920474437  0.6135419431834102   T   T   T
  0.9154281398081582  0.9156885933664466  0.5100834510632385   T   T   T
  0.0833333333333357  0.8333333333333357  0.4083001692812189   F   F   F
  0.3333333333333357  0.3333333333333357  0.4083001692812189   F   F   F
  0.9149079008042529  0.4164800834181092  0.5109710867035190   T   T   T
  0.0833333333333357  0.3333333333333357  0.4083001692812189   F   F   F
  0.2470686766742027  0.0024958182582848  0.6101561431302437   T   T   T
  0.2490668512757417  0.7511700144154838  0.6127789055846247   T   T   T
  0.1658569741289448  0.4172073822130307  0.5100658857464916   T   T   T
  0.1671014834214654  0.6654232274039299  0.5080506596839173   T   T   T
  0.4170600971038355  0.1648755980314603  0.5079736933834240   T   T   T
 -0.0015931223177719  0.4989315430737328  0.6134065392417526   T   T   T
  0.4976123151816082  0.2522453375721992  0.6123626583933267   T   T   T
  0.5833333333333357  0.5833333333333357  0.4083001692812189   F   F   F
  0.4173556616962699  0.6654636315306860  0.5073581173754249   T   T   T
  0.5012876664094843  0.4997823531844252  0.6100918958611727   T   T   T
  0.4169934344433352  0.9158396349845929  0.5057703175436644   T   T   T
  0.8333333333333357  0.0833333333333357  0.4083001692812189   F   F   F
  0.6659898161683702  0.1683199692089662  0.5077052031145464   T   T   T
  0.7493842936645649  0.0004342439407616  0.6128547578708027   T   T   T
  0.8333333333333357  0.3333333333333357  0.4083001692812189   F   F   F
  0.8333333333333357  0.5833333333333357  0.4083001692812189   F   F   F
  0.5000441736080760 -0.0020583767430695  0.6113336907546911   T   T   T
  0.5833333333333357  0.8333333333333357  0.4083001692812189   F   F   F
  0.9148148436123809  0.6674408008246887  0.5078233509643266   T   T   T
  0.1658270078877933  0.1650001920379029  0.5086886530045025   T   T   T
  0.2493998090206217  0.5002978425191965  0.6071701603486707   T   T   T
  0.3333333333333357  0.0833333333333357  0.4083001692812189   F   F   F
  0.4181141073195817  0.4159267743667516  0.5081644707621223   T   T   T
  0.5833333333333357  0.3333333333333357  0.4083001692812189   F   F   F
  0.1658095106111324  0.9180530907376264  0.5088820401423902   T   T   T
  0.0833333333333357  0.5833333333333357  0.4083001692812189   F   F   F
  0.3333333333333357  0.8333333333333357  0.4083001692812189   F   F   F
  0.5009740894885384  0.7494068910573951  0.6045521240164623   T   T   T
  0.6663903512287570  0.4163570110540787  0.5085190191050426   T   T   T
  0.3333333333333357  0.5833333333333357  0.4083001692812189   F   F   F
  0.2482766829065306  0.2508106096246214  0.6063560467831099   T   T   T
 -0.0012069284576492  0.0010533588049396  0.6060944458635662   T   T   T
  0.7515636200924504  0.2497604143501574  0.6049080212142001   T   T   T
  0.9177750561406367  0.1658269896643772  0.5089855653738523   T   T   T
  0.6677369278921808  0.6671462033278531  0.5073958858913329   T   T   T
  0.7476714830705984  0.5013720567499781  0.6052769428908028   T   T   T
  0.8333333333333357  0.8333333333333357  0.4083001692812189   F   F   F
  0.5833333333333357  0.0833333333333357  0.4083001692812189   F   F   F
  0.6678361620727612  0.9142652282837425  0.5061408506510685   T   T   T
 -0.0023290915724251  0.2495524210053725  0.6058591871146166   T   T   T
  0.7488621991046790  0.7491592522512509  0.6034003254003837   T   T   T
 
  0.00000000E+00  0.00000000E+00  0.00000000E+00
  0.00000000E+00  0.00000000E+00  0.00000000E+00
  0.00000000E+00  0.00000000E+00  0.00000000E+00
  0.00000000E+00  0.00000000E+00  0.00000000E+00
  0.00000000E+00  0.00000000E+00  0.00000000E+00
  0.00000000E+00  0.00000000E+00  0.00000000E+00
  0.00000000E+00  0.00000000E+00  0.00000000E+00
  0.00000000E+00  0.00000000E+00  0.00000000E+00
  0.00000000E+00  0.00000000E+00  0.00000000E+00
  0.00000000E+00  0.00000000E+00  0.00000000E+00
  0.00000000E+00  0.00000000E+00  0.00000000E+00
  0.00000000E+00  0.00000000E+00  0.00000000E+00
  0.00000000E+00  0.00000000E+00  0.00000000E+00
  0.00000000E+00  0.00000000E+00  0.00000000E+00
  0.00000000E+00  0.00000000E+00  0.00000000E+00
  0.00000000E+00  0.00000000E+00  0.00000000E+00
  0.00000000E+00  0.00000000E+00  0.00000000E+00
  0.00000000E+00  0.00000000E+00  0.00000000E+00
  0.00000000E+00  0.00000000E+00  0.00000000E+00
  0.00000000E+00  0.00000000E+00  0.00000000E+00
  0.00000000E+00  0.00000000E+00  0.00000000E+00
  0.00000000E+00  0.00000000E+00  0.00000000E+00
  0.00000000E+00  0.00000000E+00  0.00000000E+00
  0.00000000E+00  0.00000000E+00  0.00000000E+00
  0.00000000E+00  0.00000000E+00  0.00000000E+00
  0.00000000E+00  0.00000000E+00  0.00000000E+00
  0.00000000E+00  0.00000000E+00  0.00000000E+00
  0.00000000E+00  0.00000000E+00  0.00000000E+00
  0.00000000E+00  0.00000000E+00  0.00000000E+00
  0.00000000E+00  0.00000000E+00  0.00000000E+00
  0.00000000E+00  0.00000000E+00  0.00000000E+00
  0.00000000E+00  0.00000000E+00  0.00000000E+00
  0.00000000E+00  0.00000000E+00  0.00000000E+00
  0.00000000E+00  0.00000000E+00  0.00000000E+00
  0.00000000E+00  0.00000000E+00  0.00000000E+00
  0.00000000E+00  0.00000000E+00  0.00000000E+00
  0.00000000E+00  0.00000000E+00  0.00000000E+00
  0.00000000E+00  0.00000000E+00  0.00000000E+00
  0.00000000E+00  0.00000000E+00  0.00000000E+00
  0.00000000E+00  0.00000000E+00  0.00000000E+00
  0.00000000E+00  0.00000000E+00  0.00000000E+00
  0.00000000E+00  0.00000000E+00  0.00000000E+00
  0.00000000E+00  0.00000000E+00  0.00000000E+00
  0.00000000E+00  0.00000000E+00  0.00000000E+00
  0.00000000E+00  0.00000000E+00  0.00000000E+00
  0.00000000E+00  0.00000000E+00  0.00000000E+00
  0.00000000E+00  0.00000000E+00  0.00000000E+00
  0.00000000E+00  0.00000000E+00  0.00000000E+00
