Au Pd                                   
   1.00000000000000     
    11.0025815152626798    0.0000000000000000    0.0000000000000000
     5.5012907576313399    9.5285150994265617    0.0000000000000000
     0.0000000000000000    0.0000000000000000   24.4917850942952882
   Au   Pd
    24    24
Direct
  0.1656839108714115  0.4158257067906748  0.5019792696236937
  0.4171388329252861  0.9160664837338246  0.4995210825367832
  0.5009720263174025  0.2499189036543727  0.6027653921640470
  0.4189302582743887  0.4149867174902619  0.5004359156033625
  0.5867651700755944  0.3332677394868810  0.3972151030842446
  0.4994899972358978 -0.0030195284190475  0.6023172851603197
  0.5849892820637937  0.0815098300390964  0.4009372863106817
  0.1653657587925515  0.9168212532707588  0.4982007329825546
  0.2484831457186173  0.5017010531918048  0.6096992295243138
  0.1677483529844176  0.6662171138565274  0.5002744144524327
  0.3353026919143874  0.5855765945246552  0.3944150764646672
  0.2462730220061582  0.2492011201813768  0.6053769176752752
  0.3318908733115389  0.3344706177768658  0.3975952174689230
  0.7510982001324298 -0.0000065698708727  0.6029363371475200
  0.5018470196202462  0.5022371540706113  0.6023157687654492
  0.3327483299648962  0.0818908350898554  0.3966567980362413
  0.8345681234535072  0.8313247529507001  0.3978891669355446
 -0.0005996384079517  0.7504810085942244  0.6073493757656339
  0.9131033367285259  0.9207859437134286  0.4999459656948890
  0.0843444328386924  0.8354877338571440  0.3913651345811150
  0.8366437138239988  0.3330954672068128  0.3979118840193230
  0.9141659005566166  0.6672969598656537  0.5015719483125363
  0.1639679742825899  0.1679048914488587  0.5001040999408813
  0.6661121854451435  0.6650518836700304  0.5005124191775008
  0.7517042092537326  0.4995219830632400  0.5964486825039083
  0.8346681044248225  0.5826889632498612  0.4030973549939146
  0.8354845251951970  0.0826484468257019  0.4019243026422066
  0.4990861554156770  0.7496510009679357  0.5973062284631167
  0.6674761078375707  0.4147500304518412  0.4993175598843015
  0.6653418441354197  0.1672798466375904  0.5001238964806621
  0.5848570431249424  0.8305625719178162  0.4029321245782851
  0.7518357099963509  0.2508616358549005  0.5942957207045204
  0.0839843730173845  0.0837355833410673  0.4013800980502613
  0.2493352678206735  0.7512746948458320  0.5965969672928338
  0.5849916108524570  0.5850285245642262  0.4034846485708472
  0.4173759300310786  0.1661369829800477  0.5009604420819151
  0.6651357813714295  0.9189315220420861  0.5010387704759188
  0.3347751348981211  0.8332197448582473  0.4013609083900043
  0.2484060583152672 -0.0016625222616656  0.5972985593734058
 -0.0012582589267001  0.4992852998871277  0.5987523112685916
  0.0839410301290831  0.5838401117304064  0.4032328733594774
 -0.0026485402536525  0.2500703234755839  0.5961171625170352
  0.9141362457362713  0.4158510537006755  0.4996650520563314
  0.0832358779876304  0.3348499753980478  0.4032155095900669
  0.0006322303723954  0.0015743749109512  0.5960427512901575
  0.9121106583721705  0.1709203859408051  0.4982227120190159
  0.4184318039984111  0.6635750658357059  0.4994061865463389
  0.7499281959641263  0.7473107336074685  0.5984873554389503
 
  0.00000000E+00  0.00000000E+00  0.00000000E+00
  0.00000000E+00  0.00000000E+00  0.00000000E+00
  0.00000000E+00  0.00000000E+00  0.00000000E+00
  0.00000000E+00  0.00000000E+00  0.00000000E+00
  0.00000000E+00  0.00000000E+00  0.00000000E+00
  0.00000000E+00  0.00000000E+00  0.00000000E+00
  0.00000000E+00  0.00000000E+00  0.00000000E+00
  0.00000000E+00  0.00000000E+00  0.00000000E+00
  0.00000000E+00  0.00000000E+00  0.00000000E+00
  0.00000000E+00  0.00000000E+00  0.00000000E+00
  0.00000000E+00  0.00000000E+00  0.00000000E+00
  0.00000000E+00  0.00000000E+00  0.00000000E+00
  0.00000000E+00  0.00000000E+00  0.00000000E+00
  0.00000000E+00  0.00000000E+00  0.00000000E+00
  0.00000000E+00  0.00000000E+00  0.00000000E+00
  0.00000000E+00  0.00000000E+00  0.00000000E+00
  0.00000000E+00  0.00000000E+00  0.00000000E+00
  0.00000000E+00  0.00000000E+00  0.00000000E+00
  0.00000000E+00  0.00000000E+00  0.00000000E+00
  0.00000000E+00  0.00000000E+00  0.00000000E+00
  0.00000000E+00  0.00000000E+00  0.00000000E+00
  0.00000000E+00  0.00000000E+00  0.00000000E+00
  0.00000000E+00  0.00000000E+00  0.00000000E+00
  0.00000000E+00  0.00000000E+00  0.00000000E+00
  0.00000000E+00  0.00000000E+00  0.00000000E+00
  0.00000000E+00  0.00000000E+00  0.00000000E+00
  0.00000000E+00  0.00000000E+00  0.00000000E+00
  0.00000000E+00  0.00000000E+00  0.00000000E+00
  0.00000000E+00  0.00000000E+00  0.00000000E+00
  0.00000000E+00  0.00000000E+00  0.00000000E+00
  0.00000000E+00  0.00000000E+00  0.00000000E+00
  0.00000000E+00  0.00000000E+00  0.00000000E+00
  0.00000000E+00  0.00000000E+00  0.00000000E+00
  0.00000000E+00  0.00000000E+00  0.00000000E+00
  0.00000000E+00  0.00000000E+00  0.00000000E+00
  0.00000000E+00  0.00000000E+00  0.00000000E+00
  0.00000000E+00  0.00000000E+00  0.00000000E+00
  0.00000000E+00  0.00000000E+00  0.00000000E+00
  0.00000000E+00  0.00000000E+00  0.00000000E+00
  0.00000000E+00  0.00000000E+00  0.00000000E+00
  0.00000000E+00  0.00000000E+00  0.00000000E+00
  0.00000000E+00  0.00000000E+00  0.00000000E+00
  0.00000000E+00  0.00000000E+00  0.00000000E+00
  0.00000000E+00  0.00000000E+00  0.00000000E+00
  0.00000000E+00  0.00000000E+00  0.00000000E+00
  0.00000000E+00  0.00000000E+00  0.00000000E+00
  0.00000000E+00  0.00000000E+00  0.00000000E+00
  0.00000000E+00  0.00000000E+00  0.00000000E+00
