Au  O Pd                                
   1.00000000000000     
    11.0025815152626798    0.0000000000000000    0.0000000000000000
     5.5012907576313399    9.5285150994265617    0.0000000000000000
     0.0000000000000000    0.0000000000000000   26.1917850942952910
   Au   O    Pd
    24     8    24
Selective dynamics
Direct
  0.0833333333333357  0.0833333333333357  0.3817991009012260   F   F   F
  0.0833333333333357  0.8333333333333357  0.3817991009012260   F   F   F
  0.6702353779874187  0.9125863236237834  0.4835938114106844   T   T   T
  0.8333333333333357  0.8333333333333357  0.3817991009012260   F   F   F
  0.8333333333333357  0.5833333333333357  0.3817991009012260   F   F   F
  0.0833333333333357  0.3333333333333357  0.3817991009012260   F   F   F
  0.9169538579886672  0.4168288825931570  0.4791521539337081   T   T   T
  0.6655259461595738  0.4166354673359705  0.4795353238605272   T   T   T
  0.8333333333333357  0.3333333333333357  0.3817991009012260   F   F   F
  0.0833333333333357  0.5833333333333357  0.3817991009012260   F   F   F
  0.6701627093569933  0.1633804236165106  0.4789083688060858   T   T   T
  0.3333333333333357  0.8333333333333357  0.3817991009012260   F   F   F
  0.8333333333333357  0.0833333333333357  0.3817991009012260   F   F   F
  0.4142800916878452  0.9149161066802034  0.4855723277974122   T   T   T
  0.5833333333333357  0.8333333333333357  0.3817991009012260   F   F   F
  0.3333333333333357  0.0833333333333357  0.3817991009012260   F   F   F
  0.4147102149423751  0.6670273431195011  0.4801150648520559   T   T   T
  0.5833333333333357  0.5833333333333357  0.3817991009012260   F   F   F
  0.3333333333333357  0.3333333333333357  0.3817991009012260   F   F   F
  0.1683316116107284  0.4184735626332827  0.4790748827784994   T   T   T
  0.5833333333333357  0.3333333333333357  0.3817991009012260   F   F   F
  0.4173882973234866  0.1645077777742062  0.4794136847721115   T   T   T
  0.3333333333333357  0.5833333333333357  0.3817991009012260   F   F   F
  0.5833333333333357  0.0833333333333357  0.3817991009012260   F   F   F
  0.0816146174550201  0.5678591329168110  0.6141665989811740   T   T   T
  0.3251856271192172  0.5971665712183670  0.6148222226524778   T   T   T
  0.3248992715791094  0.1046700387921857  0.6177519342311858   T   T   T
  0.0757895910262338  0.0926869181593164  0.6151901926523591   T   T   T
  0.8371557644815761  0.8321515169613241  0.6143870912948290   T   T   T
  0.5853122663554410  0.8323475503266622  0.6174414011637706   T   T   T
  0.6043253411325001  0.5628568265101926  0.6168262924224012   T   T   T
  0.8214034238311424  0.1005955542853504  0.6157605720589762   T   T   T
  0.2521373629833010 -0.0027416585482916  0.5753631999611346   T   T   T
  0.5008051327335308  0.2495735487775120  0.5682289940176266   T   T   T
  0.5006293077414192  0.0088594376984973  0.5768551770012657   T   T   T
  0.2462879944506750  0.2578964729588700  0.5677324441266746   T   T   T
  0.1653234813700715  0.6681678695811731  0.4777638057362402   T   T   T
  0.7548731612666104  0.7395005379387706  0.5730499333990160   T   T   T
  0.2451232620639094  0.7582619814531493  0.5673532536010673   T   T   T
  0.1634295411886481  0.9187125078844463  0.4807296353514585   T   T   T
  0.1664654454047276  0.1649382887125988  0.4767060549947650   T   T   T
  0.0075549601567135  0.7480208807631610  0.5713627077025497   T   T   T
  0.4918747432340837  0.7482515688654028  0.5786136874979165   T   T   T
  0.9218764044668003  0.9140042521850565  0.4809926693954510   T   T   T
 -0.0040978831406414  0.4950360072122190  0.5675076167957246   T   T   T
  0.7410380690864360  0.0075683141669757  0.5734997167733368   T   T   T
  0.9171712437308102  0.6683552369234473  0.4779329717463359   T   T   T
 -0.0018947011479363  0.2525198533698370  0.5676353919561447   T   T   T
  0.7460463720933128  0.2578386139653153  0.5677838305452430   T   T   T
  0.6664218342415781  0.6676008580759093  0.4794224576227946   T   T   T
  0.7592907001509006  0.4950461681848969  0.5683909420989038   T   T   T
 -0.0006286811511783 -0.0029101955509838  0.5719706017775793   T   T   T
  0.9190350476975444  0.1639093115984690  0.4760569508313244   T   T   T
  0.2558422237375524  0.4932549159622628  0.5719756390417021   T   T   T
  0.5019590698116861  0.4927532911976673  0.5736962155103911   T   T   T
  0.4160877252403398  0.4180283516210222  0.4802514206373161   T   T   T
 
  0.00000000E+00  0.00000000E+00  0.00000000E+00
  0.00000000E+00  0.00000000E+00  0.00000000E+00
  0.00000000E+00  0.00000000E+00  0.00000000E+00
  0.00000000E+00  0.00000000E+00  0.00000000E+00
  0.00000000E+00  0.00000000E+00  0.00000000E+00
  0.00000000E+00  0.00000000E+00  0.00000000E+00
  0.00000000E+00  0.00000000E+00  0.00000000E+00
  0.00000000E+00  0.00000000E+00  0.00000000E+00
  0.00000000E+00  0.00000000E+00  0.00000000E+00
  0.00000000E+00  0.00000000E+00  0.00000000E+00
  0.00000000E+00  0.00000000E+00  0.00000000E+00
  0.00000000E+00  0.00000000E+00  0.00000000E+00
  0.00000000E+00  0.00000000E+00  0.00000000E+00
  0.00000000E+00  0.00000000E+00  0.00000000E+00
  0.00000000E+00  0.00000000E+00  0.00000000E+00
  0.00000000E+00  0.00000000E+00  0.00000000E+00
  0.00000000E+00  0.00000000E+00  0.00000000E+00
  0.00000000E+00  0.00000000E+00  0.00000000E+00
  0.00000000E+00  0.00000000E+00  0.00000000E+00
  0.00000000E+00  0.00000000E+00  0.00000000E+00
  0.00000000E+00  0.00000000E+00  0.00000000E+00
  0.00000000E+00  0.00000000E+00  0.00000000E+00
  0.00000000E+00  0.00000000E+00  0.00000000E+00
  0.00000000E+00  0.00000000E+00  0.00000000E+00
  0.00000000E+00  0.00000000E+00  0.00000000E+00
  0.00000000E+00  0.00000000E+00  0.00000000E+00
  0.00000000E+00  0.00000000E+00  0.00000000E+00
  0.00000000E+00  0.00000000E+00  0.00000000E+00
  0.00000000E+00  0.00000000E+00  0.00000000E+00
  0.00000000E+00  0.00000000E+00  0.00000000E+00
  0.00000000E+00  0.00000000E+00  0.00000000E+00
  0.00000000E+00  0.00000000E+00  0.00000000E+00
  0.00000000E+00  0.00000000E+00  0.00000000E+00
  0.00000000E+00  0.00000000E+00  0.00000000E+00
  0.00000000E+00  0.00000000E+00  0.00000000E+00
  0.00000000E+00  0.00000000E+00  0.00000000E+00
  0.00000000E+00  0.00000000E+00  0.00000000E+00
  0.00000000E+00  0.00000000E+00  0.00000000E+00
  0.00000000E+00  0.00000000E+00  0.00000000E+00
  0.00000000E+00  0.00000000E+00  0.00000000E+00
  0.00000000E+00  0.00000000E+00  0.00000000E+00
  0.00000000E+00  0.00000000E+00  0.00000000E+00
  0.00000000E+00  0.00000000E+00  0.00000000E+00
  0.00000000E+00  0.00000000E+00  0.00000000E+00
  0.00000000E+00  0.00000000E+00  0.00000000E+00
  0.00000000E+00  0.00000000E+00  0.00000000E+00
  0.00000000E+00  0.00000000E+00  0.00000000E+00
  0.00000000E+00  0.00000000E+00  0.00000000E+00
  0.00000000E+00  0.00000000E+00  0.00000000E+00
  0.00000000E+00  0.00000000E+00  0.00000000E+00
  0.00000000E+00  0.00000000E+00  0.00000000E+00
  0.00000000E+00  0.00000000E+00  0.00000000E+00
  0.00000000E+00  0.00000000E+00  0.00000000E+00
  0.00000000E+00  0.00000000E+00  0.00000000E+00
  0.00000000E+00  0.00000000E+00  0.00000000E+00
  0.00000000E+00  0.00000000E+00  0.00000000E+00
