Au  O Pd                                
   1.00000000000000     
    11.0025815152626798    0.0000000000000000    0.0000000000000000
     5.5012907576313399    9.5285150994265617    0.0000000000000000
     0.0000000000000000    0.0000000000000000   26.1917850942952910
   Au   O    Pd
    24     8    24
Selective dynamics
Direct
  0.0833333333333357  0.0833333333333357  0.3817991009012260   F   F   F
  0.8333333333333357  0.0833333333333357  0.3817991009012260   F   F   F
  0.8333333333333357  0.8333333333333357  0.3817991009012260   F   F   F
 -0.0425539645208179  0.0269910763535986  0.5691363086661021   T   T   T
  0.7667413523037609  0.4911043772947109  0.5631430625398007   T   T   T
  0.6690273304131408  0.6662108566333413  0.4720656823959337   T   T   T
  0.6619502629723431  0.4188008605988450  0.4722613835920697   T   T   T
  0.0061548274732220  0.2421314668951113  0.5653426845133709   T   T   T
  0.8333333333333357  0.3333333333333357  0.3817991009012260   F   F   F
  0.0833333333333357  0.5833333333333357  0.3817991009012260   F   F   F
  0.7173858614702067  0.0220681071561608  0.5604985718514996   T   T   T
  0.5164644972114708  0.7400698658326755  0.5709668394397396   T   T   T
  0.0162005997660501  0.4985784485210667  0.5659194863574586   T   T   T
  0.1653961278650558  0.6680774491809006  0.4835770257889750   T   T   T
  0.4146468323710906  0.9190503551464829  0.4797648420668035   T   T   T
  0.5833333333333357  0.8333333333333357  0.3817991009012260   F   F   F
  0.2235169714326469 -0.0243035763833680  0.5651469286070402   T   T   T
  0.7518394943665712  0.7569715183552908  0.5633060697321272   T   T   T
  0.3333333333333357  0.3333333333333357  0.3817991009012260   F   F   F
  0.1729274739100493  0.4103725949466405  0.4769887025568730   T   T   T
  0.2701606315419863  0.2466637977347127  0.6288296071257715   T   T   T
  0.3683475367910310  0.5720694283339256  0.5619023136650312   T   T   T
  0.3333333333333357  0.8333333333333357  0.3817991009012260   F   F   F
  0.0833333333333357  0.8333333333333357  0.3817991009012260   F   F   F
  0.0634636419020635  0.3323855334913864  0.6264246306131208   T   T   T
 -0.0031245046915632  0.8899036773295744  0.6251162922090051   T   T   T
  0.0782163360858683  0.5924040813390270  0.6240580611339736   T   T   T
  0.3264771405957696  0.0306362510784226  0.6202202768947851   T   T   T
  0.3250258508566885  0.7640741123628766  0.5966936985210921   T   T   T
  0.4426771089149701  0.3863648801591215  0.6801801457182434   T   T   T
  0.4821052852262044  0.1534692781012054  0.6210108867033357   T   T   T
  0.6380920660699885  0.5521206653314259  0.6275274587071163   T   T   T
  0.4583780759032904  0.2881689047755497  0.5628772192357461   T   T   T
  0.4151499833732821  0.4186050557754809  0.4733104981728483   T   T   T
  0.1676473397614533  0.1645611533488056  0.4737258435911733   T   T   T
  0.5833333333333357  0.3333333333333357  0.3817991009012260   F   F   F
  0.3333333333333357  0.0833333333333357  0.3817991009012260   F   F   F
  0.4827277677408389  0.0068443871365145  0.5725523116674018   T   T   T
  0.4177066295477455  0.1657992422478416  0.4744254636265656   T   T   T
  0.5833333333333357  0.0833333333333357  0.3817991009012260   F   F   F
  0.1603654036859474  0.9174650185824763  0.4747713803493901   T   T   T
  0.5473093945086408  0.4481316076919099  0.6434281407338256   T   T   T
  0.0018381264198347  0.7560763063309741  0.5763281788810748   T   T   T
  0.2710081712071755  0.4804319022836890  0.6445101041660960   T   T   T
  0.9135643153064139  0.9164203774731936  0.4767528182304498   T   T   T
  0.6605099292073604  0.1707111964200225  0.4709245220747967   T   T   T
  0.9217751357912936  0.6641303667663901  0.4754911553217669   T   T   T
  0.9217377872146183  0.4146771475292783  0.4748905207558098   T   T   T
  0.7062933946337578  0.2821028193534826  0.5640998112254529   T   T   T
  0.8333333333333357  0.5833333333333357  0.3817991009012260   F   F   F
  0.0833333333333357  0.3333333333333357  0.3817991009012260   F   F   F
  0.9136504804286938  0.1679555360380473  0.4801248701940458   T   T   T
  0.6637632402734687  0.9200937531492882  0.4723558337605344   T   T   T
  0.3333333333333357  0.5833333333333357  0.3817991009012260   F   F   F
  0.5833333333333357  0.5833333333333357  0.3817991009012260   F   F   F
  0.4121270896130590  0.6695680793556404  0.4712752543537763   T   T   T
 
  0.00000000E+00  0.00000000E+00  0.00000000E+00
  0.00000000E+00  0.00000000E+00  0.00000000E+00
  0.00000000E+00  0.00000000E+00  0.00000000E+00
  0.00000000E+00  0.00000000E+00  0.00000000E+00
  0.00000000E+00  0.00000000E+00  0.00000000E+00
  0.00000000E+00  0.00000000E+00  0.00000000E+00
  0.00000000E+00  0.00000000E+00  0.00000000E+00
  0.00000000E+00  0.00000000E+00  0.00000000E+00
  0.00000000E+00  0.00000000E+00  0.00000000E+00
  0.00000000E+00  0.00000000E+00  0.00000000E+00
  0.00000000E+00  0.00000000E+00  0.00000000E+00
  0.00000000E+00  0.00000000E+00  0.00000000E+00
  0.00000000E+00  0.00000000E+00  0.00000000E+00
  0.00000000E+00  0.00000000E+00  0.00000000E+00
  0.00000000E+00  0.00000000E+00  0.00000000E+00
  0.00000000E+00  0.00000000E+00  0.00000000E+00
  0.00000000E+00  0.00000000E+00  0.00000000E+00
  0.00000000E+00  0.00000000E+00  0.00000000E+00
  0.00000000E+00  0.00000000E+00  0.00000000E+00
  0.00000000E+00  0.00000000E+00  0.00000000E+00
  0.00000000E+00  0.00000000E+00  0.00000000E+00
  0.00000000E+00  0.00000000E+00  0.00000000E+00
  0.00000000E+00  0.00000000E+00  0.00000000E+00
  0.00000000E+00  0.00000000E+00  0.00000000E+00
  0.00000000E+00  0.00000000E+00  0.00000000E+00
  0.00000000E+00  0.00000000E+00  0.00000000E+00
  0.00000000E+00  0.00000000E+00  0.00000000E+00
  0.00000000E+00  0.00000000E+00  0.00000000E+00
  0.00000000E+00  0.00000000E+00  0.00000000E+00
  0.00000000E+00  0.00000000E+00  0.00000000E+00
  0.00000000E+00  0.00000000E+00  0.00000000E+00
  0.00000000E+00  0.00000000E+00  0.00000000E+00
  0.00000000E+00  0.00000000E+00  0.00000000E+00
  0.00000000E+00  0.00000000E+00  0.00000000E+00
  0.00000000E+00  0.00000000E+00  0.00000000E+00
  0.00000000E+00  0.00000000E+00  0.00000000E+00
  0.00000000E+00  0.00000000E+00  0.00000000E+00
  0.00000000E+00  0.00000000E+00  0.00000000E+00
  0.00000000E+00  0.00000000E+00  0.00000000E+00
  0.00000000E+00  0.00000000E+00  0.00000000E+00
  0.00000000E+00  0.00000000E+00  0.00000000E+00
  0.00000000E+00  0.00000000E+00  0.00000000E+00
  0.00000000E+00  0.00000000E+00  0.00000000E+00
  0.00000000E+00  0.00000000E+00  0.00000000E+00
  0.00000000E+00  0.00000000E+00  0.00000000E+00
  0.00000000E+00  0.00000000E+00  0.00000000E+00
  0.00000000E+00  0.00000000E+00  0.00000000E+00
  0.00000000E+00  0.00000000E+00  0.00000000E+00
  0.00000000E+00  0.00000000E+00  0.00000000E+00
  0.00000000E+00  0.00000000E+00  0.00000000E+00
  0.00000000E+00  0.00000000E+00  0.00000000E+00
  0.00000000E+00  0.00000000E+00  0.00000000E+00
  0.00000000E+00  0.00000000E+00  0.00000000E+00
  0.00000000E+00  0.00000000E+00  0.00000000E+00
  0.00000000E+00  0.00000000E+00  0.00000000E+00
  0.00000000E+00  0.00000000E+00  0.00000000E+00
