Au Pd                                   
   1.00000000000000     
    11.0025815152626798    0.0000000000000000    0.0000000000000000
     5.5012907576313399    9.5285150994265617    0.0000000000000000
     0.0000000000000000    0.0000000000000000   24.4917850942952882
   Au   Pd
    24    24
Direct
  0.2471100491975532  0.7507694403725562  0.6053103826207814
  0.5004277750249527 -0.0006821060451528  0.6068754617815598
  0.4188440454911606  0.1684825097687356  0.4991570450162120
  0.4174953305024432  0.9165768725866772  0.5004382063567240
  0.6697700593454339  0.9164801769889492  0.4998917387822299
  0.1655441102650228  0.9148989420355177  0.4999902805733039
  0.2474822682200049  0.4987333565066563  0.6021232701776240
  0.7518826921289520 -0.0023862932788392  0.6019781262668685
  0.1648936033410097  0.4205152500888135  0.4981276302341217
  0.3362449531994541  0.3349910555642870  0.3949758424585249
  0.4998441933716011  0.4999392144598991  0.6062988414032335
  0.1656540601345835  0.1680698148330736  0.4987572053710566
  0.2494790283751990  0.0002067540179664  0.6074973834586788
  0.8311035038656763  0.3346332380946277  0.3955823845998909
  0.9153874070612148  0.1657645428314621  0.5000228184515148
  0.8328269406622444  0.8335977357004096  0.3968619361054099
  0.0825445841131648  0.3351549435831676  0.3933555224742376
 -0.0012157722939797  0.2534534266001582  0.6036132318705282
  0.3358746969875400  0.0804922046731948  0.3921808611471799
  0.6698720123958738  0.6648943363553429  0.4992633635300503
  0.4156867718559733  0.6646282032138666  0.5013473512171689
  0.7492057983347794  0.2496585331733492  0.6051406710165960
  0.0849934594579116  0.8333509408215669  0.3969402367195132
  0.6666934465551977  0.4149859897323921  0.5001767859375655
  0.6678502797244944  0.1660546071853365  0.5015222229627956
  0.8324638276396924  0.5844546214339454  0.4014042073144852
  0.7494669255186118  0.5009795018905047  0.5965675064210770
  0.5833069012931228  0.8325176061081231  0.4016376474989650
  0.8322393475581213  0.0841763131855660  0.4035732778267749
  0.5010503159456551  0.7497671544076114  0.5988930893867105
  0.0837642123521149  0.0835174489175445  0.4013318298842798
  0.4989804801037891  0.2496889339768777  0.5978210711332472
 -0.0001304070095627 -0.0001816083520283  0.5975610837923352
  0.9171196445957154  0.4167328812246152  0.4974358938832684
  0.0839175333722624  0.5839447656403920  0.4014110031196345
  0.9175224411639828  0.6674174118370593  0.4978616194763678
 -0.0026929072158643  0.5015356140261563  0.5941559276750589
  0.9176641767383593  0.9139755606261916  0.4986758698213421
  0.5815529205943684  0.5855247706311909  0.4016454440783714
 -0.0017393224168025  0.7493562114001004  0.5942348153524748
  0.3347723299613590  0.5835915866414071  0.4047721435879243
  0.1653634248322149  0.6667963844135448  0.5001989741990881
  0.3343426659403645  0.8327884526501532  0.4023274258299946
  0.5844851689515268  0.0840502299728845  0.4025216683711000
  0.5839232861147710  0.3332307567962845  0.4043513676027976
  0.4162311922871632  0.4164791452645674  0.5012570642047673
  0.2494466846429599  0.2494635345928783  0.5961295044145095
  0.7514538597186122  0.7469290328504146  0.5968027645920564
 
  0.00000000E+00  0.00000000E+00  0.00000000E+00
  0.00000000E+00  0.00000000E+00  0.00000000E+00
  0.00000000E+00  0.00000000E+00  0.00000000E+00
  0.00000000E+00  0.00000000E+00  0.00000000E+00
  0.00000000E+00  0.00000000E+00  0.00000000E+00
  0.00000000E+00  0.00000000E+00  0.00000000E+00
  0.00000000E+00  0.00000000E+00  0.00000000E+00
  0.00000000E+00  0.00000000E+00  0.00000000E+00
  0.00000000E+00  0.00000000E+00  0.00000000E+00
  0.00000000E+00  0.00000000E+00  0.00000000E+00
  0.00000000E+00  0.00000000E+00  0.00000000E+00
  0.00000000E+00  0.00000000E+00  0.00000000E+00
  0.00000000E+00  0.00000000E+00  0.00000000E+00
  0.00000000E+00  0.00000000E+00  0.00000000E+00
  0.00000000E+00  0.00000000E+00  0.00000000E+00
  0.00000000E+00  0.00000000E+00  0.00000000E+00
  0.00000000E+00  0.00000000E+00  0.00000000E+00
  0.00000000E+00  0.00000000E+00  0.00000000E+00
  0.00000000E+00  0.00000000E+00  0.00000000E+00
  0.00000000E+00  0.00000000E+00  0.00000000E+00
  0.00000000E+00  0.00000000E+00  0.00000000E+00
  0.00000000E+00  0.00000000E+00  0.00000000E+00
  0.00000000E+00  0.00000000E+00  0.00000000E+00
  0.00000000E+00  0.00000000E+00  0.00000000E+00
  0.00000000E+00  0.00000000E+00  0.00000000E+00
  0.00000000E+00  0.00000000E+00  0.00000000E+00
  0.00000000E+00  0.00000000E+00  0.00000000E+00
  0.00000000E+00  0.00000000E+00  0.00000000E+00
  0.00000000E+00  0.00000000E+00  0.00000000E+00
  0.00000000E+00  0.00000000E+00  0.00000000E+00
  0.00000000E+00  0.00000000E+00  0.00000000E+00
  0.00000000E+00  0.00000000E+00  0.00000000E+00
  0.00000000E+00  0.00000000E+00  0.00000000E+00
  0.00000000E+00  0.00000000E+00  0.00000000E+00
  0.00000000E+00  0.00000000E+00  0.00000000E+00
  0.00000000E+00  0.00000000E+00  0.00000000E+00
  0.00000000E+00  0.00000000E+00  0.00000000E+00
  0.00000000E+00  0.00000000E+00  0.00000000E+00
  0.00000000E+00  0.00000000E+00  0.00000000E+00
  0.00000000E+00  0.00000000E+00  0.00000000E+00
  0.00000000E+00  0.00000000E+00  0.00000000E+00
  0.00000000E+00  0.00000000E+00  0.00000000E+00
  0.00000000E+00  0.00000000E+00  0.00000000E+00
  0.00000000E+00  0.00000000E+00  0.00000000E+00
  0.00000000E+00  0.00000000E+00  0.00000000E+00
  0.00000000E+00  0.00000000E+00  0.00000000E+00
  0.00000000E+00  0.00000000E+00  0.00000000E+00
  0.00000000E+00  0.00000000E+00  0.00000000E+00
