Au Pd                                   
   1.00000000000000     
    11.0025815152626798    0.0000000000000000    0.0000000000000000
     5.5012907576313399    9.5285150994265617    0.0000000000000000
     0.0000000000000000    0.0000000000000000   24.4917850942952882
   Au   Pd
    24    24
Direct
  0.7496963737812519  0.7514703976804527  0.6049247001186681
  0.5028495925293966  0.2509474024558811  0.6029642176459156
  0.4184420294651689  0.9125193797035649  0.5005760590222738
  0.5004293318295501  0.0000211824773032  0.6064037608531185
  0.4196645724640076  0.1651081522575833  0.5009298614424120
  0.8307459804449375  0.0846351859965063  0.3963853425554937
  0.3336742356218728  0.8348850042014486  0.3971530816713676
  0.2512139749621599  0.5013715722599354  0.6034434650078124
  0.1692590087615310  0.6665595207158813  0.4985911232233519
  0.8354601020679846  0.3334147929311242  0.3950001280633450
  0.6644271415097666  0.4157984423343614  0.4989015026686363
  0.1675461440925817  0.4159085871790623  0.4998108333002316
  0.5837576135106771  0.5845568204981023  0.3971671353213921
  0.2491563945712320  0.0001063018991114  0.6038673227146885
  0.3359636451136007  0.3318757714306916  0.3960285618080946
  0.9140868933752607  0.9192158166096356  0.4991025648883817
  0.0829662875958386  0.8343721852674216  0.3942467549214032
  0.0011508040138257  0.4990025986189210  0.6073831461472137
  0.9139876796333781  0.6676662053642364  0.5006858249950031
  0.0815382332569301  0.5834091176020276  0.3935225289420368
 -0.0011796909030256  0.0009698368208722  0.6002410486990434
  0.1657556627049877  0.1639215907173390  0.5003014160214724
  0.9150584031153211  0.4156297132852709  0.5000900741373263
  0.7478904573766265  0.4997732871412857  0.6034999928772428
  0.7505254212489992  0.2503252862938862  0.5953689707706631
  0.8312484942562681  0.8337639975029134  0.4029265141414516
  0.4980339367567502  0.7493981031001243  0.5971589532972316
  0.6660377515195646  0.1658619552294083  0.4999652858189344
  0.7506926060844785  0.0007738386708970  0.5976847050470123
  0.8327492950629739  0.5855027215547375  0.4032973310366549
  0.6657454771785241  0.6658821582779615  0.5013717641882020
  0.5856906504171668  0.8349233500293954  0.4044875434980634
  0.0841446381348233  0.0845475970121301  0.4020613609853768
  0.4171117988761035  0.6657334066527690  0.4974495404209620
  0.4170380655147524  0.4159319847898441  0.5001819828086700
  0.5823243250815445  0.3330976205122345  0.4027485316246820
  0.5838538982814476  0.0820657541151404  0.4041897383851024
  0.6662202975180754  0.9154107792624819  0.5025902467532336
  0.1664056733495535  0.9157615527353347  0.4987080737076691
  0.3336416227111497  0.5824719523938524  0.4012327122957261
  0.2498058741007973  0.2504994493649043  0.5989147430372733
  0.3341163196792575  0.0831587527834651  0.4028614742067731
  0.0011915039320539  0.7502177544164634  0.5970670682919454
 -0.0006381388320431  0.2505770928852655  0.5978268214355462
  0.0845461463188957  0.3327821774181664  0.4017804888047975
  0.9154226669555964  0.1655635594377948  0.4984776562333763
  0.4991474575179599  0.5026837817741195  0.5953333909695564
  0.2514033474404443  0.7499265083386913  0.5950946551951724
 
  0.00000000E+00  0.00000000E+00  0.00000000E+00
  0.00000000E+00  0.00000000E+00  0.00000000E+00
  0.00000000E+00  0.00000000E+00  0.00000000E+00
  0.00000000E+00  0.00000000E+00  0.00000000E+00
  0.00000000E+00  0.00000000E+00  0.00000000E+00
  0.00000000E+00  0.00000000E+00  0.00000000E+00
  0.00000000E+00  0.00000000E+00  0.00000000E+00
  0.00000000E+00  0.00000000E+00  0.00000000E+00
  0.00000000E+00  0.00000000E+00  0.00000000E+00
  0.00000000E+00  0.00000000E+00  0.00000000E+00
  0.00000000E+00  0.00000000E+00  0.00000000E+00
  0.00000000E+00  0.00000000E+00  0.00000000E+00
  0.00000000E+00  0.00000000E+00  0.00000000E+00
  0.00000000E+00  0.00000000E+00  0.00000000E+00
  0.00000000E+00  0.00000000E+00  0.00000000E+00
  0.00000000E+00  0.00000000E+00  0.00000000E+00
  0.00000000E+00  0.00000000E+00  0.00000000E+00
  0.00000000E+00  0.00000000E+00  0.00000000E+00
  0.00000000E+00  0.00000000E+00  0.00000000E+00
  0.00000000E+00  0.00000000E+00  0.00000000E+00
  0.00000000E+00  0.00000000E+00  0.00000000E+00
  0.00000000E+00  0.00000000E+00  0.00000000E+00
  0.00000000E+00  0.00000000E+00  0.00000000E+00
  0.00000000E+00  0.00000000E+00  0.00000000E+00
  0.00000000E+00  0.00000000E+00  0.00000000E+00
  0.00000000E+00  0.00000000E+00  0.00000000E+00
  0.00000000E+00  0.00000000E+00  0.00000000E+00
  0.00000000E+00  0.00000000E+00  0.00000000E+00
  0.00000000E+00  0.00000000E+00  0.00000000E+00
  0.00000000E+00  0.00000000E+00  0.00000000E+00
  0.00000000E+00  0.00000000E+00  0.00000000E+00
  0.00000000E+00  0.00000000E+00  0.00000000E+00
  0.00000000E+00  0.00000000E+00  0.00000000E+00
  0.00000000E+00  0.00000000E+00  0.00000000E+00
  0.00000000E+00  0.00000000E+00  0.00000000E+00
  0.00000000E+00  0.00000000E+00  0.00000000E+00
  0.00000000E+00  0.00000000E+00  0.00000000E+00
  0.00000000E+00  0.00000000E+00  0.00000000E+00
  0.00000000E+00  0.00000000E+00  0.00000000E+00
  0.00000000E+00  0.00000000E+00  0.00000000E+00
  0.00000000E+00  0.00000000E+00  0.00000000E+00
  0.00000000E+00  0.00000000E+00  0.00000000E+00
  0.00000000E+00  0.00000000E+00  0.00000000E+00
  0.00000000E+00  0.00000000E+00  0.00000000E+00
  0.00000000E+00  0.00000000E+00  0.00000000E+00
  0.00000000E+00  0.00000000E+00  0.00000000E+00
  0.00000000E+00  0.00000000E+00  0.00000000E+00
  0.00000000E+00  0.00000000E+00  0.00000000E+00
