Au  O Pd                                
   1.00000000000000     
    11.0025815152626798    0.0000000000000000    0.0000000000000000
     5.5012907576313399    9.5285150994265617    0.0000000000000000
     0.0000000000000000    0.0000000000000000   26.1917850942952910
   Au   O    Pd
    24     8    24
Selective dynamics
Direct
  0.8333333333333357  0.5833333333333357  0.3817991009012260   F   F   F
  0.9148000952128734  0.9206852180957720  0.4737636475558453   T   T   T
  0.0833333333333357  0.5833333333333357  0.3817991009012260   F   F   F
  0.9169874097011588  0.6691344594243058  0.4789278850048194   T   T   T
 -0.0005833215064096  0.5135648743952268  0.5741028073812035   T   T   T
  0.6654776883174796  0.9156622133365621  0.4802829490156759   T   T   T
  0.8333333333333357  0.3333333333333357  0.3817991009012260   F   F   F
  0.0833333333333357  0.3333333333333357  0.3817991009012260   F   F   F
  0.7646494333570318  0.2398586779991079  0.5631873047988257   T   T   T
  0.0833333333333357  0.8333333333333357  0.3817991009012260   F   F   F
  0.9247602287593510  0.1683662743407391  0.4772758704146596   T   T   T
  0.3333333333333357  0.0833333333333357  0.3817991009012260   F   F   F
  0.5833333333333357  0.5833333333333357  0.3817991009012260   F   F   F
  0.3333333333333357  0.5833333333333357  0.3817991009012260   F   F   F
  0.5833333333333357  0.8333333333333357  0.3817991009012260   F   F   F
  0.2546676910488741  0.4970752188401539  0.5665917552643540   T   T   T
  0.1703267265344998  0.9178906333041810  0.4742301249263268   T   T   T
  0.2512657610280198  0.7632036999955942  0.5751883441361649   T   T   T
  0.5833333333333357  0.0833333333333357  0.3817991009012260   F   F   F
  0.4195256663486403  0.1659996227075726  0.4753017990369360   T   T   T
  0.4872693084797929  0.0151368508065347  0.5844507328461463   T   T   T
  0.7566516845779723  0.4995856294394856  0.5684125491633611   T   T   T
  0.5833333333333357  0.3333333333333357  0.3817991009012260   F   F   F
  0.1684758285888050  0.4197064963563606  0.4741930011301395   T   T   T
  0.5687878969507092  0.3227107685494116  0.6138529342566230   T   T   T
  0.5824274946722119  0.8133805132970890  0.6168032871350870   T   T   T
  0.0740620701323204  0.8052446963007993  0.6268715603214506   T   T   T
  0.3438169472846780  0.5793336980647970  0.6211286211447234   T   T   T
  0.8029346612881503  0.3603199814237528  0.6324252467425523   T   T   T
  0.1247378326052922  0.3348853025678619  0.6220145755308494   T   T   T
  0.1423142510000496  0.0554799055075337  0.6306610732938333   T   T   T
  0.7941270254993137  0.0489128824729828  0.6330148208293471   T   T   T
 -0.0194578054720033  0.0162670908299222  0.6188744881016076   T   T   T
  0.9198976885033224  0.4160293460290958  0.4758620994042246   T   T   T
  0.0012360658100143  0.2525474528721698  0.6053685852901612   T   T   T
 -0.0048747562667209  0.7603034339853177  0.5672338138024230   T   T   T
  0.1715079756968089  0.1655299406492120  0.4728164712943430   T   T   T
  0.2414846421597574  0.0085957655937923  0.5634114452621373   T   T   T
  0.8333333333333357  0.8333333333333357  0.3817991009012260   F   F   F
  0.3333333333333357  0.3333333333333357  0.3817991009012260   F   F   F
  0.2501886070822541  0.2456485409308089  0.5625417695819611   T   T   T
  0.1669806150855992  0.6694812850256948  0.4759412688023987   T   T   T
  0.7486436690745127  0.7513679171118188  0.5700368111415584   T   T   T
  0.4194626490350841  0.4173606111715311  0.4734654151141784   T   T   T
  0.0833333333333357  0.0833333333333357  0.3817991009012260   F   F   F
  0.4183006695712455  0.9139342798463431  0.4795990967590768   T   T   T
  0.4170588210796769  0.6649917436079342  0.4811711835609060   T   T   T
  0.5105910016147371  0.4953590686522774  0.5735739784785989   T   T   T
  0.7517282606489555 -0.0004351088464991  0.5684914724724949   T   T   T
  0.6694898203781992  0.1702227659874883  0.4742111609497817   T   T   T
  0.8333333333333357  0.0833333333333357  0.3817991009012260   F   F   F
  0.6657569951996201  0.4206550957700589  0.4755096630606223   T   T   T
  0.6692041643699488  0.6628252472335635  0.4764708498927188   T   T   T
  0.5018881995542566  0.7440741714229610  0.5645508960960979   T   T   T
  0.4995525539982033  0.2466220655616164  0.5631138539795864   T   T   T
  0.3333333333333357  0.8333333333333357  0.3817991009012260   F   F   F
 
  0.00000000E+00  0.00000000E+00  0.00000000E+00
  0.00000000E+00  0.00000000E+00  0.00000000E+00
  0.00000000E+00  0.00000000E+00  0.00000000E+00
  0.00000000E+00  0.00000000E+00  0.00000000E+00
  0.00000000E+00  0.00000000E+00  0.00000000E+00
  0.00000000E+00  0.00000000E+00  0.00000000E+00
  0.00000000E+00  0.00000000E+00  0.00000000E+00
  0.00000000E+00  0.00000000E+00  0.00000000E+00
  0.00000000E+00  0.00000000E+00  0.00000000E+00
  0.00000000E+00  0.00000000E+00  0.00000000E+00
  0.00000000E+00  0.00000000E+00  0.00000000E+00
  0.00000000E+00  0.00000000E+00  0.00000000E+00
  0.00000000E+00  0.00000000E+00  0.00000000E+00
  0.00000000E+00  0.00000000E+00  0.00000000E+00
  0.00000000E+00  0.00000000E+00  0.00000000E+00
  0.00000000E+00  0.00000000E+00  0.00000000E+00
  0.00000000E+00  0.00000000E+00  0.00000000E+00
  0.00000000E+00  0.00000000E+00  0.00000000E+00
  0.00000000E+00  0.00000000E+00  0.00000000E+00
  0.00000000E+00  0.00000000E+00  0.00000000E+00
  0.00000000E+00  0.00000000E+00  0.00000000E+00
  0.00000000E+00  0.00000000E+00  0.00000000E+00
  0.00000000E+00  0.00000000E+00  0.00000000E+00
  0.00000000E+00  0.00000000E+00  0.00000000E+00
  0.00000000E+00  0.00000000E+00  0.00000000E+00
  0.00000000E+00  0.00000000E+00  0.00000000E+00
  0.00000000E+00  0.00000000E+00  0.00000000E+00
  0.00000000E+00  0.00000000E+00  0.00000000E+00
  0.00000000E+00  0.00000000E+00  0.00000000E+00
  0.00000000E+00  0.00000000E+00  0.00000000E+00
  0.00000000E+00  0.00000000E+00  0.00000000E+00
  0.00000000E+00  0.00000000E+00  0.00000000E+00
  0.00000000E+00  0.00000000E+00  0.00000000E+00
  0.00000000E+00  0.00000000E+00  0.00000000E+00
  0.00000000E+00  0.00000000E+00  0.00000000E+00
  0.00000000E+00  0.00000000E+00  0.00000000E+00
  0.00000000E+00  0.00000000E+00  0.00000000E+00
  0.00000000E+00  0.00000000E+00  0.00000000E+00
  0.00000000E+00  0.00000000E+00  0.00000000E+00
  0.00000000E+00  0.00000000E+00  0.00000000E+00
  0.00000000E+00  0.00000000E+00  0.00000000E+00
  0.00000000E+00  0.00000000E+00  0.00000000E+00
  0.00000000E+00  0.00000000E+00  0.00000000E+00
  0.00000000E+00  0.00000000E+00  0.00000000E+00
  0.00000000E+00  0.00000000E+00  0.00000000E+00
  0.00000000E+00  0.00000000E+00  0.00000000E+00
  0.00000000E+00  0.00000000E+00  0.00000000E+00
  0.00000000E+00  0.00000000E+00  0.00000000E+00
  0.00000000E+00  0.00000000E+00  0.00000000E+00
  0.00000000E+00  0.00000000E+00  0.00000000E+00
  0.00000000E+00  0.00000000E+00  0.00000000E+00
  0.00000000E+00  0.00000000E+00  0.00000000E+00
  0.00000000E+00  0.00000000E+00  0.00000000E+00
  0.00000000E+00  0.00000000E+00  0.00000000E+00
  0.00000000E+00  0.00000000E+00  0.00000000E+00
  0.00000000E+00  0.00000000E+00  0.00000000E+00
