Au  O Pd                                
   1.00000000000000     
    11.0025815152626798    0.0000000000000000    0.0000000000000000
     5.5012907576313399    9.5285150994265617    0.0000000000000000
     0.0000000000000000    0.0000000000000000   26.1917850942952910
   Au   O    Pd
    24     8    24
Selective dynamics
Direct
  0.4843323222540034  0.7507958767511196  0.5585367133439361   T   T   T
  0.6737865080830384  0.9059537421479328  0.4732762851735940   T   T   T
  0.7512759539916970  0.5014506205718514  0.5612397844945910   T   T   T
  0.8333333333333357  0.5833333333333357  0.3817991009012260   F   F   F
  0.7601232441240657  0.2495986729750929  0.5626718819514371   T   T   T
  0.9229462212974412  0.4139243566849398  0.4742497172778591   T   T   T
  0.8333333333333357  0.3333333333333357  0.3817991009012260   F   F   F
  0.7495392531337136  0.0007427456280467  0.5630229636013859   T   T   T
  0.0833333333333357  0.5833333333333357  0.3817991009012260   F   F   F
  0.6711816202626042  0.1620516814698541  0.4751759555831518   T   T   T
 -0.0113505596713793  0.4972452475544820  0.5774827847555635   T   T   T
  0.3333333333333357  0.8333333333333357  0.3817991009012260   F   F   F
  0.8333333333333357  0.0833333333333357  0.3817991009012260   F   F   F
  0.5251711385151859  0.5107214230622690  0.5968066974339660   T   T   T
  0.4228031216580208  0.6578820591703377  0.4729825713938854   T   T   T
  0.1749169919585653  0.1600997084533581  0.4721250049497499   T   T   T
  0.4972680224035226  0.2444953244964456  0.5703547496790403   T   T   T
  0.5833333333333357  0.3333333333333357  0.3817991009012260   F   F   F
  0.3333333333333357  0.3333333333333357  0.3817991009012260   F   F   F
  0.1726805221368133  0.4139425289325657  0.4788170021827389   T   T   T
  0.4859623903691537  0.0011490654534774  0.5633418742844529   T   T   T
  0.5833333333333357  0.0833333333333357  0.3817991009012260   F   F   F
  0.1737551184059177  0.9126875096383350  0.4788292228500560   T   T   T
  0.1696659814941915  0.6656166234680269  0.4807755234563825   T   T   T
  0.2579633092033713  0.1911859795035444  0.6370332351019995   T   T   T
  0.3209859222207339  0.5827285789419839  0.6193154489265777   T   T   T
  0.0910969867696091  0.5804322672971202  0.6186946232442612   T   T   T
  0.0490311715817274  0.1093415218214919  0.6181880071400124   T   T   T
  0.8247831308588748  0.8477664656821557  0.6230498732906602   T   T   T
  0.2780142951051491  0.8413007041445931  0.6377781752465451   T   T   T
  0.5392933675017596  0.8457466908211717  0.6212136074373699   T   T   T
  0.6049676762681434  0.3050472402080222  0.6227834453840834   T   T   T
  0.3333333333333357  0.0833333333333357  0.3817991009012260   F   F   F
  0.2516864796206653  0.0222005623806667  0.6331212329055663   T   T   T
  0.2470611548269239  0.2489465177877085  0.5672181387312917   T   T   T
  0.4206812164925678  0.4137943466596785  0.4807399563435667   T   T   T
  0.4223301473450920  0.1621576206064470  0.4779212404735417   T   T   T
  0.7386178166766205  0.7432123266596283  0.5936829130589553   T   T   T
  0.2340000157910427  0.7626486944590108  0.5782988281171948   T   T   T
  0.3333333333333357  0.5833333333333357  0.3817991009012260   F   F   F
 -0.0064368188551990  0.7569309427604359  0.5764125013851242   T   T   T
  0.4218924211409011  0.9138842246202569  0.4699293977939553   T   T   T
  0.5833333333333357  0.8333333333333357  0.3817991009012260   F   F   F
  0.9246392170278026  0.9098544847041024  0.4756119369127407   T   T   T
  0.0833333333333357  0.8333333333333357  0.3817991009012260   F   F   F
  0.9202358655267017  0.6640599668101104  0.4803263514995266   T   T   T
  0.0084269875390114  0.2464772689350084  0.5615691030581366   T   T   T
  0.6692097636137001  0.4134744363349602  0.4721699171977558   T   T   T
  0.0833333333333357  0.3333333333333357  0.3817991009012260   F   F   F
  0.6696080613664707  0.6634725439495199  0.4714288149524453   T   T   T
  0.0042860715946489  0.0010245753856531  0.5650943304068893   T   T   T
  0.8333333333333357  0.8333333333333357  0.3817991009012260   F   F   F
  0.9227510870057577  0.1609410764304286  0.4728304665440163   T   T   T
  0.2544366393028636  0.4907500643876062  0.5702090594195252   T   T   T
  0.5833333333333357  0.5833333333333357  0.3817991009012260   F   F   F
  0.0833333333333357  0.0833333333333357  0.3817991009012260   F   F   F
 
  0.00000000E+00  0.00000000E+00  0.00000000E+00
  0.00000000E+00  0.00000000E+00  0.00000000E+00
  0.00000000E+00  0.00000000E+00  0.00000000E+00
  0.00000000E+00  0.00000000E+00  0.00000000E+00
  0.00000000E+00  0.00000000E+00  0.00000000E+00
  0.00000000E+00  0.00000000E+00  0.00000000E+00
  0.00000000E+00  0.00000000E+00  0.00000000E+00
  0.00000000E+00  0.00000000E+00  0.00000000E+00
  0.00000000E+00  0.00000000E+00  0.00000000E+00
  0.00000000E+00  0.00000000E+00  0.00000000E+00
  0.00000000E+00  0.00000000E+00  0.00000000E+00
  0.00000000E+00  0.00000000E+00  0.00000000E+00
  0.00000000E+00  0.00000000E+00  0.00000000E+00
  0.00000000E+00  0.00000000E+00  0.00000000E+00
  0.00000000E+00  0.00000000E+00  0.00000000E+00
  0.00000000E+00  0.00000000E+00  0.00000000E+00
  0.00000000E+00  0.00000000E+00  0.00000000E+00
  0.00000000E+00  0.00000000E+00  0.00000000E+00
  0.00000000E+00  0.00000000E+00  0.00000000E+00
  0.00000000E+00  0.00000000E+00  0.00000000E+00
  0.00000000E+00  0.00000000E+00  0.00000000E+00
  0.00000000E+00  0.00000000E+00  0.00000000E+00
  0.00000000E+00  0.00000000E+00  0.00000000E+00
  0.00000000E+00  0.00000000E+00  0.00000000E+00
  0.00000000E+00  0.00000000E+00  0.00000000E+00
  0.00000000E+00  0.00000000E+00  0.00000000E+00
  0.00000000E+00  0.00000000E+00  0.00000000E+00
  0.00000000E+00  0.00000000E+00  0.00000000E+00
  0.00000000E+00  0.00000000E+00  0.00000000E+00
  0.00000000E+00  0.00000000E+00  0.00000000E+00
  0.00000000E+00  0.00000000E+00  0.00000000E+00
  0.00000000E+00  0.00000000E+00  0.00000000E+00
  0.00000000E+00  0.00000000E+00  0.00000000E+00
  0.00000000E+00  0.00000000E+00  0.00000000E+00
  0.00000000E+00  0.00000000E+00  0.00000000E+00
  0.00000000E+00  0.00000000E+00  0.00000000E+00
  0.00000000E+00  0.00000000E+00  0.00000000E+00
  0.00000000E+00  0.00000000E+00  0.00000000E+00
  0.00000000E+00  0.00000000E+00  0.00000000E+00
  0.00000000E+00  0.00000000E+00  0.00000000E+00
  0.00000000E+00  0.00000000E+00  0.00000000E+00
  0.00000000E+00  0.00000000E+00  0.00000000E+00
  0.00000000E+00  0.00000000E+00  0.00000000E+00
  0.00000000E+00  0.00000000E+00  0.00000000E+00
  0.00000000E+00  0.00000000E+00  0.00000000E+00
  0.00000000E+00  0.00000000E+00  0.00000000E+00
  0.00000000E+00  0.00000000E+00  0.00000000E+00
  0.00000000E+00  0.00000000E+00  0.00000000E+00
  0.00000000E+00  0.00000000E+00  0.00000000E+00
  0.00000000E+00  0.00000000E+00  0.00000000E+00
  0.00000000E+00  0.00000000E+00  0.00000000E+00
  0.00000000E+00  0.00000000E+00  0.00000000E+00
  0.00000000E+00  0.00000000E+00  0.00000000E+00
  0.00000000E+00  0.00000000E+00  0.00000000E+00
  0.00000000E+00  0.00000000E+00  0.00000000E+00
  0.00000000E+00  0.00000000E+00  0.00000000E+00
