Au Pd                                   
   1.00000000000000     
    11.0025815152626798    0.0000000000000000    0.0000000000000000
     5.5012907576313399    9.5285150994265617    0.0000000000000000
     0.0000000000000000    0.0000000000000000   24.4917850942952882
   Au   Pd
    24    24
Selective dynamics
Direct
  0.0833333333333357  0.0833333333333357  0.4083001692812189   F   F   F
  0.9139854450643220  0.1675281489743429  0.5083672846615712   T   T   T
  0.9150391885209599  0.9171260345899612  0.5066219600333599   T   T   T
 -0.0022615931578992  0.7502086291577932  0.6122953823933578   T   T   T
  0.0833333333333357  0.5833333333333357  0.4083001692812189   F   F   F
  0.1698019649804564  0.1642309379356563  0.5110316531961359   T   T   T
  0.9146942217836025  0.4196029486085993  0.5100891936825427   T   T   T
  0.2487866906060796  0.7512863632393433  0.6140635139206182   T   T   T
  0.1668211305684864  0.4170667734523348  0.5110142275566582   T   T   T
  0.2486250485495588  0.2497538980941097  0.6165835533494773   T   T   T
  0.1675299909135702  0.6673166135845798  0.5084243491504871   T   T   T
  0.3333333333333357  0.8333333333333357  0.4083001692812189   F   F   F
  0.0833333333333357  0.3333333333333357  0.4083001692812189   F   F   F
  0.6671288193902399  0.9155758797390565  0.5075878876895195   T   T   T
  0.4187205522549949  0.1645757194572181  0.5065261357427827   T   T   T
  0.5833333333333357  0.3333333333333357  0.4083001692812189   F   F   F
  0.4166382624622491  0.4179426326620625  0.5084647337696658   T   T   T
  0.5022354974450173  0.2477215095511416  0.6119427506084059   T   T   T
  0.5023789114721410  0.4989209198610886  0.6130802808609445   T   T   T
  0.5833333333333357  0.8333333333333357  0.4083001692812189   F   F   F
  0.5010310958236358  0.7517305380580583  0.6087939457410303   T   T   T
  0.6652209032447474  0.4198107180873802  0.5080467849241348   T   T   T
  0.8333333333333357  0.5833333333333357  0.4083001692812189   F   F   F
  0.1693441600628302  0.9146228790794823  0.5106893081543610   T   T   T
  0.5833333333333357  0.5833333333333357  0.4083001692812189   F   F   F
  0.9155315042175965  0.6678124138677595  0.5092525032263634   T   T   T
 -0.0013761022287763  0.5005936636854783  0.6073759558830136   T   T   T
  0.5006254155890005  0.0001481287539633  0.6057723992780571   T   T   T
  0.3333333333333357  0.5833333333333357  0.4083001692812189   F   F   F
  0.5833333333333357  0.0833333333333357  0.4083001692812189   F   F   F
  0.3333333333333357  0.0833333333333357  0.4083001692812189   F   F   F
  0.2491287779556327  0.4999620938447875  0.6087982118892191   T   T   T
  0.4185607509862079  0.6671230939143009  0.5084455007092237   T   T   T
  0.0833333333333357  0.8333333333333357  0.4083001692812189   F   F   F
  0.3333333333333357  0.3333333333333357  0.4083001692812189   F   F   F
  0.7524807712745100  0.4996571239921070  0.6068004155140087   T   T   T
  0.7514651491317851  0.2488783662056668  0.6059946857740347   T   T   T
  0.8333333333333357  0.3333333333333357  0.4083001692812189   F   F   F
  0.8333333333333357  0.8333333333333357  0.4083001692812189   F   F   F
  0.6647985270678177  0.6681900422239592  0.5085446470442340   T   T   T
 -0.0017177649124973  0.0018337766136164  0.6071004159778269   T   T   T
  0.2491641597109366  0.0010907702400560  0.6082161434092289   T   T   T
  0.7505643467300639 -0.0000508260477272  0.6054182709172717   T   T   T
  0.6653252270152132  0.1674577558095579  0.5078173288697052   T   T   T
  0.8333333333333357  0.0833333333333357  0.4083001692812189   F   F   F
  0.4180614214795450  0.9146102254108047  0.5088379101007543   T   T   T
 -0.0010460124076667  0.2498247819455787  0.6071870976656196   T   T   T
  0.7496744244868390  0.7502334225332765  0.6050448334968339   T   T   T
 
  0.00000000E+00  0.00000000E+00  0.00000000E+00
  0.00000000E+00  0.00000000E+00  0.00000000E+00
  0.00000000E+00  0.00000000E+00  0.00000000E+00
  0.00000000E+00  0.00000000E+00  0.00000000E+00
  0.00000000E+00  0.00000000E+00  0.00000000E+00
  0.00000000E+00  0.00000000E+00  0.00000000E+00
  0.00000000E+00  0.00000000E+00  0.00000000E+00
  0.00000000E+00  0.00000000E+00  0.00000000E+00
  0.00000000E+00  0.00000000E+00  0.00000000E+00
  0.00000000E+00  0.00000000E+00  0.00000000E+00
  0.00000000E+00  0.00000000E+00  0.00000000E+00
  0.00000000E+00  0.00000000E+00  0.00000000E+00
  0.00000000E+00  0.00000000E+00  0.00000000E+00
  0.00000000E+00  0.00000000E+00  0.00000000E+00
  0.00000000E+00  0.00000000E+00  0.00000000E+00
  0.00000000E+00  0.00000000E+00  0.00000000E+00
  0.00000000E+00  0.00000000E+00  0.00000000E+00
  0.00000000E+00  0.00000000E+00  0.00000000E+00
  0.00000000E+00  0.00000000E+00  0.00000000E+00
  0.00000000E+00  0.00000000E+00  0.00000000E+00
  0.00000000E+00  0.00000000E+00  0.00000000E+00
  0.00000000E+00  0.00000000E+00  0.00000000E+00
  0.00000000E+00  0.00000000E+00  0.00000000E+00
  0.00000000E+00  0.00000000E+00  0.00000000E+00
  0.00000000E+00  0.00000000E+00  0.00000000E+00
  0.00000000E+00  0.00000000E+00  0.00000000E+00
  0.00000000E+00  0.00000000E+00  0.00000000E+00
  0.00000000E+00  0.00000000E+00  0.00000000E+00
  0.00000000E+00  0.00000000E+00  0.00000000E+00
  0.00000000E+00  0.00000000E+00  0.00000000E+00
  0.00000000E+00  0.00000000E+00  0.00000000E+00
  0.00000000E+00  0.00000000E+00  0.00000000E+00
  0.00000000E+00  0.00000000E+00  0.00000000E+00
  0.00000000E+00  0.00000000E+00  0.00000000E+00
  0.00000000E+00  0.00000000E+00  0.00000000E+00
  0.00000000E+00  0.00000000E+00  0.00000000E+00
  0.00000000E+00  0.00000000E+00  0.00000000E+00
  0.00000000E+00  0.00000000E+00  0.00000000E+00
  0.00000000E+00  0.00000000E+00  0.00000000E+00
  0.00000000E+00  0.00000000E+00  0.00000000E+00
  0.00000000E+00  0.00000000E+00  0.00000000E+00
  0.00000000E+00  0.00000000E+00  0.00000000E+00
  0.00000000E+00  0.00000000E+00  0.00000000E+00
  0.00000000E+00  0.00000000E+00  0.00000000E+00
  0.00000000E+00  0.00000000E+00  0.00000000E+00
  0.00000000E+00  0.00000000E+00  0.00000000E+00
  0.00000000E+00  0.00000000E+00  0.00000000E+00
  0.00000000E+00  0.00000000E+00  0.00000000E+00
