Au  O Pd                                
   1.00000000000000     
    11.0025815152626798    0.0000000000000000    0.0000000000000000
     5.5012907576313399    9.5285150994265617    0.0000000000000000
     0.0000000000000000    0.0000000000000000   26.1917850942952910
   Au   O    Pd
    24     8    24
Selective dynamics
Direct
  0.3333333333333357  0.0833333333333357  0.3817991009012260   F   F   F
  0.9131828011640056  0.4170506034308974  0.4755806587071604   T   T   T
  0.8333333333333357  0.8333333333333357  0.3817991009012260   F   F   F
  0.9164213236522504  0.9179642313011382  0.4748466233492608   T   T   T
  0.0833333333333357  0.3333333333333357  0.3817991009012260   F   F   F
  0.0833333333333357  0.5833333333333357  0.3817991009012260   F   F   F
  0.7709053970948512  0.4641266161271143  0.6117846490689351   T   T   T
  0.5833333333333357  0.3333333333333357  0.3817991009012260   F   F   F
  0.0120644632721598 -0.0110520825473128  0.5683136397029832   T   T   T
  0.4149559272883919  0.4217860680059789  0.4917195482056399   T   T   T
  0.7438501207705932  0.2680472188184558  0.5599946869288460   T   T   T
  0.0034595698503182  0.7411509145206825  0.5642632692618501   T   T   T
  0.5224156079569320  0.7230405890540068  0.5598086385292885   T   T   T
  0.5211108065405893  0.4749363578191245  0.6077670282076576   T   T   T
  0.3333333333333357  0.3333333333333357  0.3817991009012260   F   F   F
  0.1660350715907900  0.4168396287593067  0.4802601707416044   T   T   T
  0.2555249457062013  0.2381654742646041  0.5663007423857570   T   T   T
  0.3333333333333357  0.5833333333333357  0.3817991009012260   F   F   F
  0.1671825604968984  0.6668029019581122  0.4758176815092839   T   T   T
  0.2010845845406469  0.5085207959842335  0.6067710710852403   T   T   T
  0.6606364929529293  0.1661600007022932  0.4768557499109688   T   T   T
  0.8333333333333357  0.0833333333333357  0.3817991009012260   F   F   F
  0.2655350466847418  0.7354147224157979  0.5667769443059939   T   T   T
  0.6624328455831392  0.4243783842333040  0.4745837724391361   T   T   T
  0.6057598781147239  0.6701261895640624  0.6360093798770895   T   T   T
  0.8426936701294420  0.8418157787132287  0.6201219190690477   T   T   T
  0.8867998424322818  0.5652799219532002  0.6316186131375119   T   T   T
  0.5550445003116111  0.9438405966149468  0.6317665845520442   T   T   T
  0.8205270984134844  0.0932851495494700  0.6117119431705541   T   T   T
  0.3494510520696092  0.3015222055398420  0.6253480314796340   T   T   T
  0.3188983252347178  0.5948779136218387  0.6330742911433196   T   T   T
  0.1091308351086912  0.0855945246660261  0.6108356441960840   T   T   T
  0.0833333333333357  0.8333333333333357  0.3817991009012260   F   F   F
  0.5833333333333357  0.5833333333333357  0.3817991009012260   F   F   F
  0.2659504251447034 -0.0132245384797770  0.5616222797280634   T   T   T
  0.0025612273483323  0.2559490395511420  0.5660894757919221   T   T   T
  0.3333333333333357  0.8333333333333357  0.3817991009012260   F   F   F
  0.1689391770570997  0.9159694312747866  0.4735875118378360   T   T   T
  0.7219099206936476  0.7616238153851979  0.6278531837179092   T   T   T
  0.5833333333333357  0.0833333333333357  0.3817991009012260   F   F   F
  0.4170303483227503  0.1651440589544485  0.4748126332644487   T   T   T
  0.5124823326439736 -0.0160709865824605  0.5611016772737309   T   T   T
  0.9194031668596113  0.1658419117466233  0.4722659641733676   T   T   T
  0.5052966018891960  0.2422784164945905  0.5753376817369529   T   T   T
  0.1680344129786778  0.1641641720587288  0.4747778774638849   T   T   T
  0.0833333333333357  0.0833333333333357  0.3817991009012260   F   F   F
  0.4167156512144876  0.6701975134595761  0.4722090830926550   T   T   T
  0.4203896654600563  0.9142985224643775  0.4738982174144764   T   T   T
  0.6679350056623715  0.9130455874976326  0.4740089257259373   T   T   T
  0.6679280273950567  0.6704453272420435  0.4696657459217253   T   T   T
  0.8333333333333357  0.5833333333333357  0.3817991009012260   F   F   F
  0.8333333333333357  0.3333333333333357  0.3817991009012260   F   F   F
  0.7457648461405322 -0.0019980986567631  0.5668627515988550   T   T   T
  0.5833333333333357  0.8333333333333357  0.3817991009012260   F   F   F
  0.9132426136534624  0.6660716530381625  0.4735931725356451   T   T   T
 -0.0146908348198990  0.5058067226335281  0.5641369842634735   T   T   T
 
  0.00000000E+00  0.00000000E+00  0.00000000E+00
  0.00000000E+00  0.00000000E+00  0.00000000E+00
  0.00000000E+00  0.00000000E+00  0.00000000E+00
  0.00000000E+00  0.00000000E+00  0.00000000E+00
  0.00000000E+00  0.00000000E+00  0.00000000E+00
  0.00000000E+00  0.00000000E+00  0.00000000E+00
  0.00000000E+00  0.00000000E+00  0.00000000E+00
  0.00000000E+00  0.00000000E+00  0.00000000E+00
  0.00000000E+00  0.00000000E+00  0.00000000E+00
  0.00000000E+00  0.00000000E+00  0.00000000E+00
  0.00000000E+00  0.00000000E+00  0.00000000E+00
  0.00000000E+00  0.00000000E+00  0.00000000E+00
  0.00000000E+00  0.00000000E+00  0.00000000E+00
  0.00000000E+00  0.00000000E+00  0.00000000E+00
  0.00000000E+00  0.00000000E+00  0.00000000E+00
  0.00000000E+00  0.00000000E+00  0.00000000E+00
  0.00000000E+00  0.00000000E+00  0.00000000E+00
  0.00000000E+00  0.00000000E+00  0.00000000E+00
  0.00000000E+00  0.00000000E+00  0.00000000E+00
  0.00000000E+00  0.00000000E+00  0.00000000E+00
  0.00000000E+00  0.00000000E+00  0.00000000E+00
  0.00000000E+00  0.00000000E+00  0.00000000E+00
  0.00000000E+00  0.00000000E+00  0.00000000E+00
  0.00000000E+00  0.00000000E+00  0.00000000E+00
  0.00000000E+00  0.00000000E+00  0.00000000E+00
  0.00000000E+00  0.00000000E+00  0.00000000E+00
  0.00000000E+00  0.00000000E+00  0.00000000E+00
  0.00000000E+00  0.00000000E+00  0.00000000E+00
  0.00000000E+00  0.00000000E+00  0.00000000E+00
  0.00000000E+00  0.00000000E+00  0.00000000E+00
  0.00000000E+00  0.00000000E+00  0.00000000E+00
  0.00000000E+00  0.00000000E+00  0.00000000E+00
  0.00000000E+00  0.00000000E+00  0.00000000E+00
  0.00000000E+00  0.00000000E+00  0.00000000E+00
  0.00000000E+00  0.00000000E+00  0.00000000E+00
  0.00000000E+00  0.00000000E+00  0.00000000E+00
  0.00000000E+00  0.00000000E+00  0.00000000E+00
  0.00000000E+00  0.00000000E+00  0.00000000E+00
  0.00000000E+00  0.00000000E+00  0.00000000E+00
  0.00000000E+00  0.00000000E+00  0.00000000E+00
  0.00000000E+00  0.00000000E+00  0.00000000E+00
  0.00000000E+00  0.00000000E+00  0.00000000E+00
  0.00000000E+00  0.00000000E+00  0.00000000E+00
  0.00000000E+00  0.00000000E+00  0.00000000E+00
  0.00000000E+00  0.00000000E+00  0.00000000E+00
  0.00000000E+00  0.00000000E+00  0.00000000E+00
  0.00000000E+00  0.00000000E+00  0.00000000E+00
  0.00000000E+00  0.00000000E+00  0.00000000E+00
  0.00000000E+00  0.00000000E+00  0.00000000E+00
  0.00000000E+00  0.00000000E+00  0.00000000E+00
  0.00000000E+00  0.00000000E+00  0.00000000E+00
  0.00000000E+00  0.00000000E+00  0.00000000E+00
  0.00000000E+00  0.00000000E+00  0.00000000E+00
  0.00000000E+00  0.00000000E+00  0.00000000E+00
  0.00000000E+00  0.00000000E+00  0.00000000E+00
  0.00000000E+00  0.00000000E+00  0.00000000E+00
