Au Pd                                   
   1.00000000000000     
    11.0025815152626798    0.0000000000000000    0.0000000000000000
     5.5012907576313399    9.5285150994265617    0.0000000000000000
     0.0000000000000000    0.0000000000000000   24.4917850942952882
   Au   Pd
    24    24
Selective dynamics
Direct
  0.0833333333333357  0.0833333333333357  0.4083001692812189   F   F   F
  0.0833333333333357  0.3333333333333357  0.4083001692812189   F   F   F
  0.0833333333333357  0.8333333333333357  0.4083001692812189   F   F   F
  0.9139010674788748  0.1651460625636316  0.5095143622253187   T   T   T
  0.2497770883459126  0.0005255819139591  0.6159056758607984   T   T   T
 -0.0031450701206068  0.7515377521352913  0.6111761904908339   T   T   T
  0.3333333333333357  0.0833333333333357  0.4083001692812189   F   F   F
  0.1665792224823034  0.1672076340535782  0.5128061165966543   T   T   T
  0.2500924616367186  0.7496442740056275  0.6145774300797282   T   T   T
  0.3333333333333357  0.3333333333333357  0.4083001692812189   F   F   F
  0.2470753063453814  0.2549499392317161  0.6142793504285191   T   T   T
  0.3333333333333357  0.5833333333333357  0.4083001692812189   F   F   F
  0.9147045130514632  0.6657479295134335  0.5052672308772161   T   T   T
  0.3333333333333357  0.8333333333333357  0.4083001692812189   F   F   F
  0.1677271940461516  0.9141501792893124  0.5127558942236066   T   T   T
  0.4195282426304205  0.1652293254932495  0.5095078295099029   T   T   T
  0.5040341729651481 -0.0034831830709397  0.6104606219244956   T   T   T
  0.5029296485347456  0.2496775986830820  0.6109536906807682   T   T   T
  0.5005772457298521  0.5002660601278143  0.6104635224246687   T   T   T
  0.5833333333333357  0.8333333333333357  0.4083001692812189   F   F   F
  0.8333333333333357  0.3333333333333357  0.4083001692812189   F   F   F
  0.6632014548644151  0.4180227628599313  0.5069359483735271   T   T   T
  0.7520782422020278  0.5006890298092166  0.6090670278317896   T   T   T
  0.1672976900341714  0.6629444753359943  0.5095447307258020   T   T   T
  0.5833333333333357  0.5833333333333357  0.4083001692812189   F   F   F
  0.0833333333333357  0.5833333333333357  0.4083001692812189   F   F   F
  0.4174129963639467  0.4150491758459996  0.5085392530369527   T   T   T
  0.5833333333333357  0.3333333333333357  0.4083001692812189   F   F   F
  0.2499542711724768  0.5002062985420961  0.6061351521417583   T   T   T
  0.5833333333333357  0.0833333333333357  0.4083001692812189   F   F   F
  0.6662185185076861  0.9164001422875626  0.5062290303734976   T   T   T
  0.9133893507293579  0.9161017950191654  0.5069751749264846   T   T   T
 -0.0014615623095286  0.2510746021481862  0.6071432818836480   T   T   T
  0.0000986983893534  0.5010211143731518  0.6034421071143946   T   T   T
  0.9145890752710584  0.4183691284763218  0.5081431390310850   T   T   T
  0.6643238469560049  0.6673711386345309  0.5064749617217911   T   T   T
  0.5008526767102330  0.7499964962729004  0.6046575148997636   T   T   T
 -0.0021646608522840  0.0015668085164905  0.6072905702667002   T   T   T
  0.8333333333333357  0.8333333333333357  0.4083001692812189   F   F   F
  0.8333333333333357  0.0833333333333357  0.4083001692812189   F   F   F
  0.7514522981537355  0.2485143117716900  0.6050717992979586   T   T   T
  0.8333333333333357  0.5833333333333357  0.4083001692812189   F   F   F
  0.7510710804613184  0.0008148841157556  0.6024130901086679   T   T   T
  0.6660264355688373  0.1647060473341387  0.5054156655386447   T   T   T
  0.1667840129780419  0.4151303307090577  0.5082915081942316   T   T   T
  0.4191571211165024  0.9134330193473856  0.5097847673987987   T   T   T
  0.4171026774466051  0.6659742102557877  0.5088313831212404   T   T   T
  0.7503740034648951  0.7503121583268234  0.6021709749760044   T   T   T
 
  0.00000000E+00  0.00000000E+00  0.00000000E+00
  0.00000000E+00  0.00000000E+00  0.00000000E+00
  0.00000000E+00  0.00000000E+00  0.00000000E+00
  0.00000000E+00  0.00000000E+00  0.00000000E+00
  0.00000000E+00  0.00000000E+00  0.00000000E+00
  0.00000000E+00  0.00000000E+00  0.00000000E+00
  0.00000000E+00  0.00000000E+00  0.00000000E+00
  0.00000000E+00  0.00000000E+00  0.00000000E+00
  0.00000000E+00  0.00000000E+00  0.00000000E+00
  0.00000000E+00  0.00000000E+00  0.00000000E+00
  0.00000000E+00  0.00000000E+00  0.00000000E+00
  0.00000000E+00  0.00000000E+00  0.00000000E+00
  0.00000000E+00  0.00000000E+00  0.00000000E+00
  0.00000000E+00  0.00000000E+00  0.00000000E+00
  0.00000000E+00  0.00000000E+00  0.00000000E+00
  0.00000000E+00  0.00000000E+00  0.00000000E+00
  0.00000000E+00  0.00000000E+00  0.00000000E+00
  0.00000000E+00  0.00000000E+00  0.00000000E+00
  0.00000000E+00  0.00000000E+00  0.00000000E+00
  0.00000000E+00  0.00000000E+00  0.00000000E+00
  0.00000000E+00  0.00000000E+00  0.00000000E+00
  0.00000000E+00  0.00000000E+00  0.00000000E+00
  0.00000000E+00  0.00000000E+00  0.00000000E+00
  0.00000000E+00  0.00000000E+00  0.00000000E+00
  0.00000000E+00  0.00000000E+00  0.00000000E+00
  0.00000000E+00  0.00000000E+00  0.00000000E+00
  0.00000000E+00  0.00000000E+00  0.00000000E+00
  0.00000000E+00  0.00000000E+00  0.00000000E+00
  0.00000000E+00  0.00000000E+00  0.00000000E+00
  0.00000000E+00  0.00000000E+00  0.00000000E+00
  0.00000000E+00  0.00000000E+00  0.00000000E+00
  0.00000000E+00  0.00000000E+00  0.00000000E+00
  0.00000000E+00  0.00000000E+00  0.00000000E+00
  0.00000000E+00  0.00000000E+00  0.00000000E+00
  0.00000000E+00  0.00000000E+00  0.00000000E+00
  0.00000000E+00  0.00000000E+00  0.00000000E+00
  0.00000000E+00  0.00000000E+00  0.00000000E+00
  0.00000000E+00  0.00000000E+00  0.00000000E+00
  0.00000000E+00  0.00000000E+00  0.00000000E+00
  0.00000000E+00  0.00000000E+00  0.00000000E+00
  0.00000000E+00  0.00000000E+00  0.00000000E+00
  0.00000000E+00  0.00000000E+00  0.00000000E+00
  0.00000000E+00  0.00000000E+00  0.00000000E+00
  0.00000000E+00  0.00000000E+00  0.00000000E+00
  0.00000000E+00  0.00000000E+00  0.00000000E+00
  0.00000000E+00  0.00000000E+00  0.00000000E+00
  0.00000000E+00  0.00000000E+00  0.00000000E+00
  0.00000000E+00  0.00000000E+00  0.00000000E+00
