Au Pd                                   
   1.00000000000000     
    11.0025815152626798    0.0000000000000000    0.0000000000000000
     5.5012907576313399    9.5285150994265617    0.0000000000000000
     0.0000000000000000    0.0000000000000000   24.4917850942952882
   Au   Pd
    24    24
Direct
  0.2462610029299196  0.7493516246493812  0.6006685618712346
  0.8341687145674024  0.8337705992641307  0.3921970197762583
  0.7518391848369388  0.4980627199167110  0.6024650246967301
  0.6666103760931847  0.1704825817304557  0.5003226489311300
  0.5001933521364856  0.7497404070337048  0.6028617357916269
  0.4144672956015649  0.9161279764455463  0.4997120361329025
  0.5838988665900663  0.8331708783183042  0.3965610394109678
  0.4993302115019361  0.4978971875715790  0.5999091381289411
  0.5855732416206870  0.5825731822118075  0.4005311663050506
  0.4993952517893767  0.2499925693652909  0.6043584830512346
  0.5848200190787028  0.3310323210273389  0.3984785240332464
  0.4998089109274097  0.0017668061089531  0.6080445908409938
  0.4130135691386822  0.1700008488311067  0.4997267585963108
  0.6660175267472662  0.9166281985385036  0.5004212271028693
  0.3323606566013549  0.5831182455311016  0.3995916167920848
  0.7536096197705424  0.7490346687778668  0.6043446333373419
  0.0000681877547398  0.2487225423238379  0.6021097447493621
  0.9168698982365653  0.4155150167931446  0.4994613072890375
  0.2476807331231603  0.0010983095376066  0.6031631806649412
  0.0839850535407709  0.8349413499199539  0.3978479984774610
  0.0825906600844514  0.3347848467760053  0.3965351487166563
  0.9193090352548828  0.9173343212219461  0.4991204016648303
  0.9185631813210210  0.6656746707453121  0.4992516954908700
  0.3321026840788294  0.0840375141576353  0.3949465120236709
  0.8344441992145923  0.0841822157368420  0.4021550676219429
  0.7514659494700990 -0.0005224087327918  0.5975634011185597
  0.1673139441670126  0.4167573215552706  0.4980291322220776
  0.7508203076380409  0.2478101811283191  0.5973141930339112
  0.8339441570419608  0.5835011928338840  0.4026328011095597
  0.6655899412092183  0.6661995678257838  0.5008481797813753
 -0.0022778285953855 -0.0004680798898225  0.5970976307960041
  0.9178953401513530  0.1675763666879779  0.5006472800815917
  0.6652872760538658  0.4188283113620003  0.5001014372507722
  0.8353952171453279  0.3309756908380758  0.4033062005165289
  0.4166233282817101  0.6657893275939885  0.5005406421096206
  0.3331069962859735  0.3333536900005697  0.4017951567596961
  0.0034849749491564  0.4985529609433104  0.5966378449693511
  0.4149574667119932  0.4186994215394472  0.4995959811829926
 -0.0000192468280825  0.7492387067165708  0.5960329591655855
  0.5835332794170898  0.0835558264375065  0.4024451662456534
  0.1652312760525861  0.1665913099944726  0.4995200233636329
  0.1668977253245529  0.9165893504287936  0.5009164500073532
  0.3321607451986501  0.8345299872181223  0.4031653292649692
  0.2474270831977047  0.4987570727671080  0.5946575863152260
  0.1697484597572865  0.6659866447265010  0.4994488521061204
  0.2489272475793296  0.2513725264225674  0.5961268572441837
  0.0833229391831917  0.5828662481599789  0.4019699795053162
  0.0821819880668316  0.0844171809082984  0.4048216543522231
 
  0.00000000E+00  0.00000000E+00  0.00000000E+00
  0.00000000E+00  0.00000000E+00  0.00000000E+00
  0.00000000E+00  0.00000000E+00  0.00000000E+00
  0.00000000E+00  0.00000000E+00  0.00000000E+00
  0.00000000E+00  0.00000000E+00  0.00000000E+00
  0.00000000E+00  0.00000000E+00  0.00000000E+00
  0.00000000E+00  0.00000000E+00  0.00000000E+00
  0.00000000E+00  0.00000000E+00  0.00000000E+00
  0.00000000E+00  0.00000000E+00  0.00000000E+00
  0.00000000E+00  0.00000000E+00  0.00000000E+00
  0.00000000E+00  0.00000000E+00  0.00000000E+00
  0.00000000E+00  0.00000000E+00  0.00000000E+00
  0.00000000E+00  0.00000000E+00  0.00000000E+00
  0.00000000E+00  0.00000000E+00  0.00000000E+00
  0.00000000E+00  0.00000000E+00  0.00000000E+00
  0.00000000E+00  0.00000000E+00  0.00000000E+00
  0.00000000E+00  0.00000000E+00  0.00000000E+00
  0.00000000E+00  0.00000000E+00  0.00000000E+00
  0.00000000E+00  0.00000000E+00  0.00000000E+00
  0.00000000E+00  0.00000000E+00  0.00000000E+00
  0.00000000E+00  0.00000000E+00  0.00000000E+00
  0.00000000E+00  0.00000000E+00  0.00000000E+00
  0.00000000E+00  0.00000000E+00  0.00000000E+00
  0.00000000E+00  0.00000000E+00  0.00000000E+00
  0.00000000E+00  0.00000000E+00  0.00000000E+00
  0.00000000E+00  0.00000000E+00  0.00000000E+00
  0.00000000E+00  0.00000000E+00  0.00000000E+00
  0.00000000E+00  0.00000000E+00  0.00000000E+00
  0.00000000E+00  0.00000000E+00  0.00000000E+00
  0.00000000E+00  0.00000000E+00  0.00000000E+00
  0.00000000E+00  0.00000000E+00  0.00000000E+00
  0.00000000E+00  0.00000000E+00  0.00000000E+00
  0.00000000E+00  0.00000000E+00  0.00000000E+00
  0.00000000E+00  0.00000000E+00  0.00000000E+00
  0.00000000E+00  0.00000000E+00  0.00000000E+00
  0.00000000E+00  0.00000000E+00  0.00000000E+00
  0.00000000E+00  0.00000000E+00  0.00000000E+00
  0.00000000E+00  0.00000000E+00  0.00000000E+00
  0.00000000E+00  0.00000000E+00  0.00000000E+00
  0.00000000E+00  0.00000000E+00  0.00000000E+00
  0.00000000E+00  0.00000000E+00  0.00000000E+00
  0.00000000E+00  0.00000000E+00  0.00000000E+00
  0.00000000E+00  0.00000000E+00  0.00000000E+00
  0.00000000E+00  0.00000000E+00  0.00000000E+00
  0.00000000E+00  0.00000000E+00  0.00000000E+00
  0.00000000E+00  0.00000000E+00  0.00000000E+00
  0.00000000E+00  0.00000000E+00  0.00000000E+00
  0.00000000E+00  0.00000000E+00  0.00000000E+00
