Au Pd                                   
   1.00000000000000     
    11.0025815152626798    0.0000000000000000    0.0000000000000000
     5.5012907576313399    9.5285150994265617    0.0000000000000000
     0.0000000000000000    0.0000000000000000   24.4917850942952882
   Au   Pd
    24    24
Selective dynamics
Direct
  0.0833333333333357  0.0833333333333357  0.4083001692812189   F   F   F
 -0.0002670818833582  0.4994044127751350  0.6107318229232002   T   T   T
  0.0833333333333357  0.8333333333333357  0.4083001692812189   F   F   F
  0.9168671869942558  0.4161804973380875  0.5088774490685140   T   T   T
 -0.0014262540870374  0.7494778838377247  0.6118894905954125   T   T   T
  0.0833333333333357  0.3333333333333357  0.4083001692812189   F   F   F
  0.0014303658548334 -0.0002207548472967  0.6098455585984662   T   T   T
  0.2551553774173735  0.7487898188375545  0.6103277081790750   T   T   T
  0.3333333333333357  0.5833333333333357  0.4083001692812189   F   F   F
  0.1651164644507764  0.6664141393069811  0.5090291516517166   T   T   T
  0.2542561696374701  0.4954434839936368  0.6109920385423521   T   T   T
  0.3333333333333357  0.8333333333333357  0.4083001692812189   F   F   F
  0.0031839501714420  0.2483964642252056  0.6104916229294562   T   T   T
  0.5833333333333357  0.0833333333333357  0.4083001692812189   F   F   F
  0.4135155985095093  0.1685444582376370  0.5070727514059521   T   T   T
  0.5833333333333357  0.3333333333333357  0.4083001692812189   F   F   F
  0.5833333333333357  0.8333333333333357  0.4083001692812189   F   F   F
  0.8333333333333357  0.0833333333333357  0.4083001692812189   F   F   F
  0.7465730242300225  0.0004374438388564  0.6124113210989091   T   T   T
  0.6648498215290032  0.4179578128886190  0.5072845013036443   T   T   T
  0.7470482084714898  0.2529763922178866  0.6106724816139498   T   T   T
  0.8333333333333357  0.5833333333333357  0.4083001692812189   F   F   F
  0.8333333333333357  0.8333333333333357  0.4083001692812189   F   F   F
  0.6670684101481874  0.9155313783917290  0.5109960101442916   T   T   T
  0.4995015779099264  0.2486347185654273  0.6045142153718612   T   T   T
  0.4150911821565992  0.4173449563814063  0.5079666805493540   T   T   T
  0.4971978430894557 -0.0000332464294627  0.6052443820229276   T   T   T
  0.9162754875166168  0.9180622850751246  0.5103170990116207   T   T   T
  0.3333333333333357  0.3333333333333357  0.4083001692812189   F   F   F
  0.3333333333333357  0.0833333333333357  0.4083001692812189   F   F   F
  0.1663512860909990  0.1648827117669790  0.5075773493021773   T   T   T
  0.2530805871248290 -0.0013118414045581  0.6041208075844196   T   T   T
  0.5833333333333357  0.5833333333333357  0.4083001692812189   F   F   F
  0.1662607913864094  0.9179330852648442  0.5094903540649278   T   T   T
  0.4153563243045416  0.6688669614141480  0.5080348874306689   T   T   T
  0.0833333333333357  0.5833333333333357  0.4083001692812189   F   F   F
  0.5009719589595210  0.4997075069521762  0.6042453457042261   T   T   T
  0.4145650829737482  0.9157985782488915  0.5074903258274521   T   T   T
  0.5017513865561698  0.7504776361056812  0.6035740919042824   T   T   T
  0.6670852424292981  0.1670250886200928  0.5098989382461088   T   T   T
  0.8333333333333357  0.3333333333333357  0.4083001692812189   F   F   F
  0.6644556625550104  0.6681305804204638  0.5075586125278083   T   T   T
  0.7474343324116857  0.5027389815427825  0.6050758720743536   T   T   T
  0.9169160495545255  0.1649566318618786  0.5089335596105666   T   T   T
  0.2523379849021481  0.2472863031363766  0.6041385689094609   T   T   T
  0.9166142565812782  0.6665785841342112  0.5090733468758456   T   T   T
  0.1660239998254809  0.4170859011225427  0.5074118026883023   T   T   T
  0.7477899361223200  0.7486587486139992  0.6059246098570908   T   T   T
 
  0.00000000E+00  0.00000000E+00  0.00000000E+00
  0.00000000E+00  0.00000000E+00  0.00000000E+00
  0.00000000E+00  0.00000000E+00  0.00000000E+00
  0.00000000E+00  0.00000000E+00  0.00000000E+00
  0.00000000E+00  0.00000000E+00  0.00000000E+00
  0.00000000E+00  0.00000000E+00  0.00000000E+00
  0.00000000E+00  0.00000000E+00  0.00000000E+00
  0.00000000E+00  0.00000000E+00  0.00000000E+00
  0.00000000E+00  0.00000000E+00  0.00000000E+00
  0.00000000E+00  0.00000000E+00  0.00000000E+00
  0.00000000E+00  0.00000000E+00  0.00000000E+00
  0.00000000E+00  0.00000000E+00  0.00000000E+00
  0.00000000E+00  0.00000000E+00  0.00000000E+00
  0.00000000E+00  0.00000000E+00  0.00000000E+00
  0.00000000E+00  0.00000000E+00  0.00000000E+00
  0.00000000E+00  0.00000000E+00  0.00000000E+00
  0.00000000E+00  0.00000000E+00  0.00000000E+00
  0.00000000E+00  0.00000000E+00  0.00000000E+00
  0.00000000E+00  0.00000000E+00  0.00000000E+00
  0.00000000E+00  0.00000000E+00  0.00000000E+00
  0.00000000E+00  0.00000000E+00  0.00000000E+00
  0.00000000E+00  0.00000000E+00  0.00000000E+00
  0.00000000E+00  0.00000000E+00  0.00000000E+00
  0.00000000E+00  0.00000000E+00  0.00000000E+00
  0.00000000E+00  0.00000000E+00  0.00000000E+00
  0.00000000E+00  0.00000000E+00  0.00000000E+00
  0.00000000E+00  0.00000000E+00  0.00000000E+00
  0.00000000E+00  0.00000000E+00  0.00000000E+00
  0.00000000E+00  0.00000000E+00  0.00000000E+00
  0.00000000E+00  0.00000000E+00  0.00000000E+00
  0.00000000E+00  0.00000000E+00  0.00000000E+00
  0.00000000E+00  0.00000000E+00  0.00000000E+00
  0.00000000E+00  0.00000000E+00  0.00000000E+00
  0.00000000E+00  0.00000000E+00  0.00000000E+00
  0.00000000E+00  0.00000000E+00  0.00000000E+00
  0.00000000E+00  0.00000000E+00  0.00000000E+00
  0.00000000E+00  0.00000000E+00  0.00000000E+00
  0.00000000E+00  0.00000000E+00  0.00000000E+00
  0.00000000E+00  0.00000000E+00  0.00000000E+00
  0.00000000E+00  0.00000000E+00  0.00000000E+00
  0.00000000E+00  0.00000000E+00  0.00000000E+00
  0.00000000E+00  0.00000000E+00  0.00000000E+00
  0.00000000E+00  0.00000000E+00  0.00000000E+00
  0.00000000E+00  0.00000000E+00  0.00000000E+00
  0.00000000E+00  0.00000000E+00  0.00000000E+00
  0.00000000E+00  0.00000000E+00  0.00000000E+00
  0.00000000E+00  0.00000000E+00  0.00000000E+00
  0.00000000E+00  0.00000000E+00  0.00000000E+00
