Au Pd                                   
   1.00000000000000     
    11.0025815152626798    0.0000000000000000    0.0000000000000000
     5.5012907576313399    9.5285150994265617    0.0000000000000000
     0.0000000000000000    0.0000000000000000   24.4917850942952882
   Au   Pd
    24    24
Direct
  0.0846674537731575  0.0804030365062551  0.3969598402533965
  0.4157894748470156  0.6658788065599806  0.5007712033887876
  0.4976433655170118  0.5019977109862866  0.6036112215439670
  0.4188664863731235  0.1659738621362539  0.5008093308493091
  0.5862125039320742  0.0837731683828998  0.3950470451714815
  0.5852117015385941  0.8314322022530820  0.3927714231627821
  0.4159599294513301  0.9171420018450569  0.4986256572820641
  0.1665240318991756  0.6679913080733267  0.5015744156080723
  0.6686273540583710  0.1660417519617068  0.5011163145138808
  0.2467776731214641  0.2498618010157095  0.6080364347834907
  0.1681467527320962  0.4165412982602476  0.5019840182793898
  0.3352808253664834  0.3344641196369134  0.3977871136959198
  0.5832647134091771  0.5818294713299328  0.3974323084026719
  0.4999186251695891  0.2491407256900309  0.6058185066506053
  0.3330463205277168  0.0828466324156743  0.3913581359767921
 -0.0021140884647100  0.7523985937348403  0.6045336046655185
  0.8346475346576352  0.3322551734578039  0.3987311270673539
  0.9153796062590323  0.6691561307002772  0.5009761898084416
  0.0850329154012487  0.5825935615893313  0.3951163399152732
  0.9154824586102468  0.4151364682661078  0.5014903227586140
  0.6658092859796843  0.6677017414847798  0.4999888278501318
  0.7499949846006231  0.5002864997164556  0.6046204703456942
  0.8367695346357185  0.8331074537620171  0.3976587180197600
  0.1657930550579625  0.1653492996825581  0.5005818394059655
  0.6674133082727787  0.4149779211127630  0.5012584049184745
  0.7512451070410494  0.2484033775006657  0.5976383500495004
  0.8356708915159072  0.0822836297227741  0.4043142439361068
  0.4974929470285685  0.7529845677932189  0.5977476734057823
  0.8352867253641741  0.5819034445002020  0.4023010409803670
  0.7485934002628361  0.0001800768514857  0.5965858409224203
  0.2477136219902415  0.7534125678517515  0.5986319557000461
  0.5841127715432756  0.3332508999936611  0.4051637249319351
  0.9170153656965195  0.1652487703134077  0.4996360352167041
 -0.0012582826246013  0.0021301941771317  0.5966338185756410
  0.0852024414507741  0.3327751042661341  0.4028149107661809
 -0.0012917744668983  0.2482288146249710  0.5985828283613784
 -0.0016058912746407  0.5010666735908283  0.5994761064829970
  0.0856756244413817  0.8326048789165719  0.4042492430509630
  0.4183340651783775  0.4155047311820169  0.5025126276270790
  0.9168643847107062  0.9170033442292578  0.5011520827920259
  0.3345299858875734  0.5832546938175784  0.4041334947457825
  0.2480675193814606  0.5011737645513014  0.5999757792755662
  0.3340933150761340  0.8323291556373824  0.4016917085987968
  0.1627867368386705  0.9189578010801945  0.5000031344418630
  0.6675770212688993  0.9173741853287424  0.4974449883489387
  0.4994464485730278 -0.0013195494345839  0.5964829854054576
  0.2480229331801180 -0.0007059876809070  0.5970434737417032
  0.7462788352098446  0.7536741206259232  0.5971251383249248
 
  0.00000000E+00  0.00000000E+00  0.00000000E+00
  0.00000000E+00  0.00000000E+00  0.00000000E+00
  0.00000000E+00  0.00000000E+00  0.00000000E+00
  0.00000000E+00  0.00000000E+00  0.00000000E+00
  0.00000000E+00  0.00000000E+00  0.00000000E+00
  0.00000000E+00  0.00000000E+00  0.00000000E+00
  0.00000000E+00  0.00000000E+00  0.00000000E+00
  0.00000000E+00  0.00000000E+00  0.00000000E+00
  0.00000000E+00  0.00000000E+00  0.00000000E+00
  0.00000000E+00  0.00000000E+00  0.00000000E+00
  0.00000000E+00  0.00000000E+00  0.00000000E+00
  0.00000000E+00  0.00000000E+00  0.00000000E+00
  0.00000000E+00  0.00000000E+00  0.00000000E+00
  0.00000000E+00  0.00000000E+00  0.00000000E+00
  0.00000000E+00  0.00000000E+00  0.00000000E+00
  0.00000000E+00  0.00000000E+00  0.00000000E+00
  0.00000000E+00  0.00000000E+00  0.00000000E+00
  0.00000000E+00  0.00000000E+00  0.00000000E+00
  0.00000000E+00  0.00000000E+00  0.00000000E+00
  0.00000000E+00  0.00000000E+00  0.00000000E+00
  0.00000000E+00  0.00000000E+00  0.00000000E+00
  0.00000000E+00  0.00000000E+00  0.00000000E+00
  0.00000000E+00  0.00000000E+00  0.00000000E+00
  0.00000000E+00  0.00000000E+00  0.00000000E+00
  0.00000000E+00  0.00000000E+00  0.00000000E+00
  0.00000000E+00  0.00000000E+00  0.00000000E+00
  0.00000000E+00  0.00000000E+00  0.00000000E+00
  0.00000000E+00  0.00000000E+00  0.00000000E+00
  0.00000000E+00  0.00000000E+00  0.00000000E+00
  0.00000000E+00  0.00000000E+00  0.00000000E+00
  0.00000000E+00  0.00000000E+00  0.00000000E+00
  0.00000000E+00  0.00000000E+00  0.00000000E+00
  0.00000000E+00  0.00000000E+00  0.00000000E+00
  0.00000000E+00  0.00000000E+00  0.00000000E+00
  0.00000000E+00  0.00000000E+00  0.00000000E+00
  0.00000000E+00  0.00000000E+00  0.00000000E+00
  0.00000000E+00  0.00000000E+00  0.00000000E+00
  0.00000000E+00  0.00000000E+00  0.00000000E+00
  0.00000000E+00  0.00000000E+00  0.00000000E+00
  0.00000000E+00  0.00000000E+00  0.00000000E+00
  0.00000000E+00  0.00000000E+00  0.00000000E+00
  0.00000000E+00  0.00000000E+00  0.00000000E+00
  0.00000000E+00  0.00000000E+00  0.00000000E+00
  0.00000000E+00  0.00000000E+00  0.00000000E+00
  0.00000000E+00  0.00000000E+00  0.00000000E+00
  0.00000000E+00  0.00000000E+00  0.00000000E+00
  0.00000000E+00  0.00000000E+00  0.00000000E+00
  0.00000000E+00  0.00000000E+00  0.00000000E+00
