Au  O Pd                                
   1.00000000000000     
    11.0025815152626798    0.0000000000000000    0.0000000000000000
     5.5012907576313399    9.5285150994265617    0.0000000000000000
     0.0000000000000000    0.0000000000000000   26.1917850942952910
   Au   O    Pd
    24     8    24
Selective dynamics
Direct
  0.0833333333333357  0.0833333333333357  0.3817991009012260   F   F   F
  0.3333333333333357  0.8333333333333357  0.3817991009012260   F   F   F
  0.4184111827999503  0.9148310117677547  0.4803340962209877   T   T   T
  0.8333333333333357  0.8333333333333357  0.3817991009012260   F   F   F
  0.6645684494114289  0.6652322147815881  0.4842096467059239   T   T   T
  0.8333333333333357  0.5833333333333357  0.3817991009012260   F   F   F
  0.0833333333333357  0.3333333333333357  0.3817991009012260   F   F   F
  0.9137356991493257  0.4166296437721119  0.4788975201250832   T   T   T
  0.8333333333333357  0.3333333333333357  0.3817991009012260   F   F   F
  0.0833333333333357  0.5833333333333357  0.3817991009012260   F   F   F
  0.9161819049904725  0.6675814726710657  0.4778593659046066   T   T   T
  0.9157994122632024  0.9189975141203267  0.4766735378251303   T   T   T
  0.8333333333333357  0.0833333333333357  0.3817991009012260   F   F   F
  0.1696382017249800  0.6656158123196152  0.4825128172156826   T   T   T
  0.5833333333333357  0.8333333333333357  0.3817991009012260   F   F   F
  0.3333333333333357  0.0833333333333357  0.3817991009012260   F   F   F
  0.1683053736679401  0.1656844597949851  0.4793132985104897   T   T   T
  0.4174986201893521  0.6638262972545137  0.4863883441866151   T   T   T
  0.5833333333333357  0.5833333333333357  0.3817991009012260   F   F   F
  0.3333333333333357  0.3333333333333357  0.3817991009012260   F   F   F
  0.4176495386271746  0.4151170150987180  0.4834053828578437   T   T   T
  0.5833333333333357  0.3333333333333357  0.3817991009012260   F   F   F
  0.5833333333333357  0.0833333333333357  0.3817991009012260   F   F   F
  0.0833333333333357  0.8333333333333357  0.3817991009012260   F   F   F
  0.3338195079971457  0.3231741228571685  0.6157300454044554   T   T   T
  0.3180026121856131  0.5953003867034570  0.6258693969713806   T   T   T
  0.3434226426899051  0.0787064128159264  0.6114712068843386   T   T   T
  0.0394130157613016  0.6043235068314625  0.6159776533038258   T   T   T
  0.3227215335532032  0.8476747092292832  0.6192496528972923   T   T   T
  0.6026596593729159  0.3006637530352052  0.6203691982434084   T   T   T
  0.8577618969389128  0.3152612153362755  0.6152220639219479   T   T   T
  0.6030659171318058  0.5924196574847309  0.6267682112627290   T   T   T
  0.5065240495960848  0.2400644130997515  0.5718772473499578   T   T   T
  0.2436164100790389  0.2533092837332378  0.5693173626006165   T   T   T
  0.5134282168867409 -0.0066824101343302  0.5677965449838400   T   T   T
  0.4193093003041473  0.1673349511919267  0.4777931730313633   T   T   T
  0.3333333333333357  0.5833333333333357  0.3817991009012260   F   F   F
  0.7523412932454846  0.7537145096347125  0.5685898033690291   T   T   T
  0.2368436025426615  0.7573246091486232  0.5792643467548427   T   T   T
  0.1681805648312776  0.9156212326730230  0.4789688290419156   T   T   T
  0.5042358621223109  0.4998541232501758  0.5901435845982542   T   T   T
  0.2391178559243250  0.5081908298033425  0.5802282590295060   T   T   T
 -0.0100371600297375  0.7639231604195118  0.5708697576971566   T   T   T
  0.5074936723977318  0.7551915870372315  0.5807640645758602   T   T   T
 -0.0077494267936762  0.4999530503099864  0.5669370980801134   T   T   T
  0.6649357651967638  0.1692568782312851  0.4780095630421728   T   T   T
  0.7512942937154157 -0.0016937999086678  0.5646071550549421   T   T   T
  0.6653189528239739  0.4147262825844292  0.4805769445019796   T   T   T
  0.7572099096738728  0.2398659681506805  0.5718220796081958   T   T   T
  0.0064100763570071  0.2435930572080637  0.5651321714200049   T   T   T
 -0.0033090812338903 -0.0005662744588367  0.5643654871131298   T   T   T
  0.7554186449162404  0.5017563069385266  0.5767802717985467   T   T   T
  0.9137077961162102  0.1673452499676079  0.4765345771708056   T   T   T
  0.6655096160805655  0.9185424114383435  0.4768814408472911   T   T   T
  0.1689789980483840  0.4160348897778743  0.4792188991881999   T   T   T
  0.2416885450719588  0.0028733410893218  0.5705994790669195   T   T   T
 
  0.00000000E+00  0.00000000E+00  0.00000000E+00
  0.00000000E+00  0.00000000E+00  0.00000000E+00
  0.00000000E+00  0.00000000E+00  0.00000000E+00
  0.00000000E+00  0.00000000E+00  0.00000000E+00
  0.00000000E+00  0.00000000E+00  0.00000000E+00
  0.00000000E+00  0.00000000E+00  0.00000000E+00
  0.00000000E+00  0.00000000E+00  0.00000000E+00
  0.00000000E+00  0.00000000E+00  0.00000000E+00
  0.00000000E+00  0.00000000E+00  0.00000000E+00
  0.00000000E+00  0.00000000E+00  0.00000000E+00
  0.00000000E+00  0.00000000E+00  0.00000000E+00
  0.00000000E+00  0.00000000E+00  0.00000000E+00
  0.00000000E+00  0.00000000E+00  0.00000000E+00
  0.00000000E+00  0.00000000E+00  0.00000000E+00
  0.00000000E+00  0.00000000E+00  0.00000000E+00
  0.00000000E+00  0.00000000E+00  0.00000000E+00
  0.00000000E+00  0.00000000E+00  0.00000000E+00
  0.00000000E+00  0.00000000E+00  0.00000000E+00
  0.00000000E+00  0.00000000E+00  0.00000000E+00
  0.00000000E+00  0.00000000E+00  0.00000000E+00
  0.00000000E+00  0.00000000E+00  0.00000000E+00
  0.00000000E+00  0.00000000E+00  0.00000000E+00
  0.00000000E+00  0.00000000E+00  0.00000000E+00
  0.00000000E+00  0.00000000E+00  0.00000000E+00
  0.00000000E+00  0.00000000E+00  0.00000000E+00
  0.00000000E+00  0.00000000E+00  0.00000000E+00
  0.00000000E+00  0.00000000E+00  0.00000000E+00
  0.00000000E+00  0.00000000E+00  0.00000000E+00
  0.00000000E+00  0.00000000E+00  0.00000000E+00
  0.00000000E+00  0.00000000E+00  0.00000000E+00
  0.00000000E+00  0.00000000E+00  0.00000000E+00
  0.00000000E+00  0.00000000E+00  0.00000000E+00
  0.00000000E+00  0.00000000E+00  0.00000000E+00
  0.00000000E+00  0.00000000E+00  0.00000000E+00
  0.00000000E+00  0.00000000E+00  0.00000000E+00
  0.00000000E+00  0.00000000E+00  0.00000000E+00
  0.00000000E+00  0.00000000E+00  0.00000000E+00
  0.00000000E+00  0.00000000E+00  0.00000000E+00
  0.00000000E+00  0.00000000E+00  0.00000000E+00
  0.00000000E+00  0.00000000E+00  0.00000000E+00
  0.00000000E+00  0.00000000E+00  0.00000000E+00
  0.00000000E+00  0.00000000E+00  0.00000000E+00
  0.00000000E+00  0.00000000E+00  0.00000000E+00
  0.00000000E+00  0.00000000E+00  0.00000000E+00
  0.00000000E+00  0.00000000E+00  0.00000000E+00
  0.00000000E+00  0.00000000E+00  0.00000000E+00
  0.00000000E+00  0.00000000E+00  0.00000000E+00
  0.00000000E+00  0.00000000E+00  0.00000000E+00
  0.00000000E+00  0.00000000E+00  0.00000000E+00
  0.00000000E+00  0.00000000E+00  0.00000000E+00
  0.00000000E+00  0.00000000E+00  0.00000000E+00
  0.00000000E+00  0.00000000E+00  0.00000000E+00
  0.00000000E+00  0.00000000E+00  0.00000000E+00
  0.00000000E+00  0.00000000E+00  0.00000000E+00
  0.00000000E+00  0.00000000E+00  0.00000000E+00
  0.00000000E+00  0.00000000E+00  0.00000000E+00
