Au Pd                                   
   1.00000000000000     
    11.0025815152626798    0.0000000000000000    0.0000000000000000
     5.5012907576313399    9.5285150994265617    0.0000000000000000
     0.0000000000000000    0.0000000000000000   24.4917850942952882
   Au   Pd
    24    24
Selective dynamics
Direct
  0.2538325728439604  0.7467298103125805  0.6066649990342049   T   T   T
  0.0021214938114290  0.7494585357771674  0.6143395296810548   T   T   T
  0.1662077432967923  0.1660719455132346  0.5065475556732763   T   T   T
  0.0833333333333357  0.5833333333333357  0.4083001692812189   F   F   F
 -0.0020493302871610  0.2502915109087607  0.6102353830382747   T   T   T
  0.0013172918627042  0.4991938860942907  0.6117026387305459   T   T   T
  0.0833333333333357  0.3333333333333357  0.4083001692812189   F   F   F
 -0.0013610233255532  0.0013425909937612  0.6100266632704170   T   T   T
  0.9196931581821182  0.6643515920557017  0.5115464075225337   T   T   T
  0.7485099832316882  0.7518157476727922  0.6137192475944843   T   T   T
  0.2517598361706311 -0.0022692922513551  0.6114808851126594   T   T   T
  0.2513851556220832  0.2511511784535286  0.6089727825997543   T   T   T
  0.9186515092264204  0.9164455661769514  0.5089622431139680   T   T   T
  0.5015323187000850 -0.0000271529987497  0.6092725502244086   T   T   T
  0.5833333333333357  0.3333333333333357  0.4083001692812189   F   F   F
  0.5017659804738173  0.2522998608702552  0.6070505035925404   T   T   T
  0.4161267260611881  0.9165762823814246  0.5053678262370341   T   T   T
  0.8333333333333357  0.0833333333333357  0.4083001692812189   F   F   F
  0.6678491596914059  0.4147056525290165  0.5068307561537707   T   T   T
  0.8333333333333357  0.5833333333333357  0.4083001692812189   F   F   F
  0.6656678442332199  0.6664371858293511  0.5074638837729529   T   T   T
  0.7464042438242382  0.5002930387052592  0.6127835509509414   T   T   T
  0.8333333333333357  0.8333333333333357  0.4083001692812189   F   F   F
  0.5833333333333357  0.0833333333333357  0.4083001692812189   F   F   F
  0.4177165484531032  0.1680225403686484  0.5067621208704894   T   T   T
  0.6662188088909732  0.9171508053776058  0.5087609539632112   T   T   T
  0.1671264795092190  0.9147800106008780  0.5059692660534173   T   T   T
  0.3333333333333357  0.8333333333333357  0.4083001692812189   F   F   F
  0.1694422078592960  0.4154455922438343  0.5073135545749899   T   T   T
  0.1696646100489627  0.6652069001520401  0.5062051236119581   T   T   T
  0.3333333333333357  0.5833333333333357  0.4083001692812189   F   F   F
  0.3333333333333357  0.0833333333333357  0.4083001692812189   F   F   F
  0.0833333333333357  0.8333333333333357  0.4083001692812189   F   F   F
  0.2507580499115862  0.5006195336568811  0.6021018454745246   T   T   T
  0.4151412266369756  0.4160251924283012  0.5058602597411250   T   T   T
  0.9178839312255678  0.1656628735135985  0.5068737983054037   T   T   T
  0.4137754574710683  0.6657308371958560  0.5046626977473591   T   T   T
  0.5833333333333357  0.8333333333333357  0.4083001692812189   F   F   F
  0.6656690895037777  0.1660948643357968  0.5084830969774781   T   T   T
  0.9176427705613028  0.4149418283376629  0.5092681638936237   T   T   T
  0.7500435879139742  0.2498364100826483  0.6039367175452223   T   T   T
  0.8333333333333357  0.3333333333333357  0.4083001692812189   F   F   F
  0.7507033176060094  0.0003179805893817  0.6049387946267798   T   T   T
  0.5004560739783920  0.7492560930025904  0.6038979221938150   T   T   T
  0.3333333333333357  0.3333333333333357  0.4083001692812189   F   F   F
  0.5000398666014489  0.5001705523937556  0.6018279239358567   T   T   T
  0.5833333333333357  0.5833333333333357  0.4083001692812189   F   F   F
  0.0833333333333357  0.0833333333333357  0.4083001692812189   F   F   F
 
  0.00000000E+00  0.00000000E+00  0.00000000E+00
  0.00000000E+00  0.00000000E+00  0.00000000E+00
  0.00000000E+00  0.00000000E+00  0.00000000E+00
  0.00000000E+00  0.00000000E+00  0.00000000E+00
  0.00000000E+00  0.00000000E+00  0.00000000E+00
  0.00000000E+00  0.00000000E+00  0.00000000E+00
  0.00000000E+00  0.00000000E+00  0.00000000E+00
  0.00000000E+00  0.00000000E+00  0.00000000E+00
  0.00000000E+00  0.00000000E+00  0.00000000E+00
  0.00000000E+00  0.00000000E+00  0.00000000E+00
  0.00000000E+00  0.00000000E+00  0.00000000E+00
  0.00000000E+00  0.00000000E+00  0.00000000E+00
  0.00000000E+00  0.00000000E+00  0.00000000E+00
  0.00000000E+00  0.00000000E+00  0.00000000E+00
  0.00000000E+00  0.00000000E+00  0.00000000E+00
  0.00000000E+00  0.00000000E+00  0.00000000E+00
  0.00000000E+00  0.00000000E+00  0.00000000E+00
  0.00000000E+00  0.00000000E+00  0.00000000E+00
  0.00000000E+00  0.00000000E+00  0.00000000E+00
  0.00000000E+00  0.00000000E+00  0.00000000E+00
  0.00000000E+00  0.00000000E+00  0.00000000E+00
  0.00000000E+00  0.00000000E+00  0.00000000E+00
  0.00000000E+00  0.00000000E+00  0.00000000E+00
  0.00000000E+00  0.00000000E+00  0.00000000E+00
  0.00000000E+00  0.00000000E+00  0.00000000E+00
  0.00000000E+00  0.00000000E+00  0.00000000E+00
  0.00000000E+00  0.00000000E+00  0.00000000E+00
  0.00000000E+00  0.00000000E+00  0.00000000E+00
  0.00000000E+00  0.00000000E+00  0.00000000E+00
  0.00000000E+00  0.00000000E+00  0.00000000E+00
  0.00000000E+00  0.00000000E+00  0.00000000E+00
  0.00000000E+00  0.00000000E+00  0.00000000E+00
  0.00000000E+00  0.00000000E+00  0.00000000E+00
  0.00000000E+00  0.00000000E+00  0.00000000E+00
  0.00000000E+00  0.00000000E+00  0.00000000E+00
  0.00000000E+00  0.00000000E+00  0.00000000E+00
  0.00000000E+00  0.00000000E+00  0.00000000E+00
  0.00000000E+00  0.00000000E+00  0.00000000E+00
  0.00000000E+00  0.00000000E+00  0.00000000E+00
  0.00000000E+00  0.00000000E+00  0.00000000E+00
  0.00000000E+00  0.00000000E+00  0.00000000E+00
  0.00000000E+00  0.00000000E+00  0.00000000E+00
  0.00000000E+00  0.00000000E+00  0.00000000E+00
  0.00000000E+00  0.00000000E+00  0.00000000E+00
  0.00000000E+00  0.00000000E+00  0.00000000E+00
  0.00000000E+00  0.00000000E+00  0.00000000E+00
  0.00000000E+00  0.00000000E+00  0.00000000E+00
  0.00000000E+00  0.00000000E+00  0.00000000E+00
