Au  O Pd                                
   1.00000000000000     
    11.0025815152626798    0.0000000000000000    0.0000000000000000
     5.5012907576313399    9.5285150994265617    0.0000000000000000
     0.0000000000000000    0.0000000000000000   26.1917850942952910
   Au   O    Pd
    24     8    24
Selective dynamics
Direct
  0.0833333333333357  0.0833333333333357  0.3817991009012260   F   F   F
  0.2186168621921545  0.7412948084805117  0.5850489851311573   T   T   T
  0.0833333333333357  0.8333333333333357  0.3817991009012260   F   F   F
  0.6675491663244230  0.9142685971642756  0.4844948227962819   T   T   T
  0.8333333333333357  0.8333333333333357  0.3817991009012260   F   F   F
  0.6683801795339924  0.6566251782382599  0.4825841188683647   T   T   T
  0.0833333333333357  0.3333333333333357  0.3817991009012260   F   F   F
  0.7525287007390505  0.2477161870236628  0.5594471648346252   T   T   T
  0.8333333333333357  0.3333333333333357  0.3817991009012260   F   F   F
  0.0833333333333357  0.5833333333333357  0.3817991009012260   F   F   F
  0.6644984593657569  0.1617204813313465  0.4728065002342079   T   T   T
  0.4933834557464450  0.7533411009438368  0.5699430900507323   T   T   T
  0.4141899728962306  0.9144134037129485  0.4798968489922619   T   T   T
  0.5833333333333357  0.8333333333333357  0.3817991009012260   F   F   F
  0.3333333333333357  0.0833333333333357  0.3817991009012260   F   F   F
  0.4852645816075321  0.5071833733939868  0.5607064345421753   T   T   T
  0.5833333333333357  0.5833333333333357  0.3817991009012260   F   F   F
  0.1675200877312017  0.4085350565296776  0.4732212999750640   T   T   T
  0.2368148165906267  0.2596604675953562  0.5661331259385768   T   T   T
  0.4569851589131840  0.2765314818390477  0.5908350671193509   T   T   T
  0.3333333333333357  0.5833333333333357  0.3817991009012260   F   F   F
  0.1638926970143306  0.6682054455741738  0.4764266013413604   T   T   T
  0.5833333333333357  0.3333333333333357  0.3817991009012260   F   F   F
  0.5073859536019065  0.9895529304586547  0.5803038684097509   T   T   T
  0.5808432667968306  0.0935462741688189  0.6326307281315193   T   T   T
  0.3005857969070425  0.0932940159268419  0.6169760356950514   T   T   T
  0.2994210525061176  0.8509034223986496  0.6195324610002535   T   T   T
  0.9683910403401237  0.3914102733648379  0.6220172726461650   T   T   T
  0.6012214052171103  0.3310547703977220  0.6164907592258279   T   T   T
  0.5716032808660664  0.5829358643549665  0.6227334112526992   T   T   T
  0.8922187657372025  0.0378070302790232  0.6243308710557655   T   T   T
  0.6832825148118284  0.7985724219012846  0.6383001161578775   T   T   T
  0.5833333333333357  0.0833333333333357  0.3817991009012260   F   F   F
  0.4174389662547653  0.1621296039407402  0.4773443398060541   T   T   T
  0.3333333333333357  0.8333333333333357  0.3817991009012260   F   F   F
  0.9154569531345221  0.1638540502737796  0.4743939744161101   T   T   T
  0.2320509959019181  0.5048074162032651  0.5606738173219638   T   T   T
  0.4156855500934118  0.4113110896792174  0.4752933384761785   T   T   T
  0.9924276969373761  0.9949202412359895  0.5609450890314147   T   T   T
  0.3333333333333357  0.3333333333333357  0.3817991009012260   F   F   F
  0.4109875481512621  0.6663549857838340  0.4747941415383716   T   T   T
  0.2221839973799511  0.0084864770211426  0.5689929974585307   T   T   T
  0.1652210680061773  0.1590890567583213  0.4769349663234445   T   T   T
  0.9804593180918864  0.7520960937828087  0.5604479929564196   T   T   T
  0.9147872715074680  0.9160430915162444  0.4725977799524539   T   T   T
  0.1641723783416770  0.9152279396235751  0.4781114276492160   T   T   T
  0.8333333333333357  0.0833333333333357  0.3817991009012260   F   F   F
  0.9843278317349602  0.5034228732889828  0.5610690027856273   T   T   T
  0.7727191633501085  0.9625780278261510  0.6108710977429914   T   T   T
  0.9140398949931972  0.6628136817153973  0.4741741920651961   T   T   T
  0.7695709517228022  0.4939314233965125  0.6165535538974697   T   T   T
  0.6645409808448760  0.4139080036336013  0.4724404740826795   T   T   T
  0.9854547469527845  0.2590216624946312  0.5622772915656250   T   T   T
  0.7518201919017673  0.7352379903113683  0.5724115591498675   T   T   T
  0.9144954152911809  0.4105045264747619  0.4725581224539713   T   T   T
  0.8333333333333357  0.5833333333333357  0.3817991009012260   F   F   F
 
  0.00000000E+00  0.00000000E+00  0.00000000E+00
  0.00000000E+00  0.00000000E+00  0.00000000E+00
  0.00000000E+00  0.00000000E+00  0.00000000E+00
  0.00000000E+00  0.00000000E+00  0.00000000E+00
  0.00000000E+00  0.00000000E+00  0.00000000E+00
  0.00000000E+00  0.00000000E+00  0.00000000E+00
  0.00000000E+00  0.00000000E+00  0.00000000E+00
  0.00000000E+00  0.00000000E+00  0.00000000E+00
  0.00000000E+00  0.00000000E+00  0.00000000E+00
  0.00000000E+00  0.00000000E+00  0.00000000E+00
  0.00000000E+00  0.00000000E+00  0.00000000E+00
  0.00000000E+00  0.00000000E+00  0.00000000E+00
  0.00000000E+00  0.00000000E+00  0.00000000E+00
  0.00000000E+00  0.00000000E+00  0.00000000E+00
  0.00000000E+00  0.00000000E+00  0.00000000E+00
  0.00000000E+00  0.00000000E+00  0.00000000E+00
  0.00000000E+00  0.00000000E+00  0.00000000E+00
  0.00000000E+00  0.00000000E+00  0.00000000E+00
  0.00000000E+00  0.00000000E+00  0.00000000E+00
  0.00000000E+00  0.00000000E+00  0.00000000E+00
  0.00000000E+00  0.00000000E+00  0.00000000E+00
  0.00000000E+00  0.00000000E+00  0.00000000E+00
  0.00000000E+00  0.00000000E+00  0.00000000E+00
  0.00000000E+00  0.00000000E+00  0.00000000E+00
  0.00000000E+00  0.00000000E+00  0.00000000E+00
  0.00000000E+00  0.00000000E+00  0.00000000E+00
  0.00000000E+00  0.00000000E+00  0.00000000E+00
  0.00000000E+00  0.00000000E+00  0.00000000E+00
  0.00000000E+00  0.00000000E+00  0.00000000E+00
  0.00000000E+00  0.00000000E+00  0.00000000E+00
  0.00000000E+00  0.00000000E+00  0.00000000E+00
  0.00000000E+00  0.00000000E+00  0.00000000E+00
  0.00000000E+00  0.00000000E+00  0.00000000E+00
  0.00000000E+00  0.00000000E+00  0.00000000E+00
  0.00000000E+00  0.00000000E+00  0.00000000E+00
  0.00000000E+00  0.00000000E+00  0.00000000E+00
  0.00000000E+00  0.00000000E+00  0.00000000E+00
  0.00000000E+00  0.00000000E+00  0.00000000E+00
  0.00000000E+00  0.00000000E+00  0.00000000E+00
  0.00000000E+00  0.00000000E+00  0.00000000E+00
  0.00000000E+00  0.00000000E+00  0.00000000E+00
  0.00000000E+00  0.00000000E+00  0.00000000E+00
  0.00000000E+00  0.00000000E+00  0.00000000E+00
  0.00000000E+00  0.00000000E+00  0.00000000E+00
  0.00000000E+00  0.00000000E+00  0.00000000E+00
  0.00000000E+00  0.00000000E+00  0.00000000E+00
  0.00000000E+00  0.00000000E+00  0.00000000E+00
  0.00000000E+00  0.00000000E+00  0.00000000E+00
  0.00000000E+00  0.00000000E+00  0.00000000E+00
  0.00000000E+00  0.00000000E+00  0.00000000E+00
  0.00000000E+00  0.00000000E+00  0.00000000E+00
  0.00000000E+00  0.00000000E+00  0.00000000E+00
  0.00000000E+00  0.00000000E+00  0.00000000E+00
  0.00000000E+00  0.00000000E+00  0.00000000E+00
  0.00000000E+00  0.00000000E+00  0.00000000E+00
  0.00000000E+00  0.00000000E+00  0.00000000E+00
