Au  O Pd                                
   1.00000000000000     
    11.0025815152626798    0.0000000000000000    0.0000000000000000
     5.5012907576313399    9.5285150994265617    0.0000000000000000
     0.0000000000000000    0.0000000000000000   26.1917850942952910
   Au   O    Pd
    24     8    24
Selective dynamics
Direct
  0.0833333333333357  0.0833333333333357  0.3817991009012260   F   F   F
  0.3333333333333357  0.8333333333333357  0.3817991009012260   F   F   F
  0.8333333333333357  0.8333333333333357  0.3817991009012260   F   F   F
  0.6633308025569628  0.4175113624458331  0.4811190489871148   T   T   T
  0.8333333333333357  0.3333333333333357  0.3817991009012260   F   F   F
  0.0833333333333357  0.3333333333333357  0.3817991009012260   F   F   F
  0.9139973292632464  0.4183808947599662  0.4772109249529634   T   T   T
  0.8333333333333357  0.0833333333333357  0.3817991009012260   F   F   F
  0.6686734365747996  0.9188793272933249  0.4814304233930242   T   T   T
  0.0833333333333357  0.5833333333333357  0.3817991009012260   F   F   F
  0.9162042574158450  0.6692487404938791  0.4780555135122467   T   T   T
  0.5833333333333357  0.8333333333333357  0.3817991009012260   F   F   F
  0.4163933516419210  0.9175397320072100  0.4775676468517626   T   T   T
  0.1682735108595766  0.6687392918491852  0.4829257933507265   T   T   T
  0.5833333333333357  0.5833333333333357  0.3817991009012260   F   F   F
  0.3333333333333357  0.0833333333333357  0.3817991009012260   F   F   F
  0.1663866532367284  0.1677221104854560  0.4792982547560891   T   T   T
  0.5833333333333357  0.3333333333333357  0.3817991009012260   F   F   F
  0.3333333333333357  0.3333333333333357  0.3817991009012260   F   F   F
  0.1693732737818055  0.4187396237113625  0.4840721182916634   T   T   T
  0.4208040268211629  0.1704513471423651  0.4853407427295690   T   T   T
  0.5833333333333357  0.0833333333333357  0.3817991009012260   F   F   F
  0.3333333333333357  0.5833333333333357  0.3817991009012260   F   F   F
  0.0833333333333357  0.8333333333333357  0.3817991009012260   F   F   F
  0.2989931560938056  0.3376625521036651  0.6252343473639668   T   T   T
  0.0816713294226737  0.8252125523918159  0.6149379994978457   T   T   T
  0.8288968353485443  0.5850114306250059  0.6150772849816603   T   T   T
  0.1026931540714934  0.0965343673229012  0.6137253046714529   T   T   T
  0.3407149202574433  0.5885949889446180  0.6182257212302353   T   T   T
  0.8312474537392543  0.0872375903830208  0.6154492708535538   T   T   T
  0.5931017934212183  0.0441746989972435  0.6227023690023705   T   T   T
  0.5931122613220779  0.3449634448873493  0.6199442297975940   T   T   T
  0.1652164323366686  0.9173147737833651  0.4791302825489280   T   T   T
  0.2545075252257104  0.7537080687265598  0.5730835233818490   T   T   T
  0.7456667265967214  0.7498758002325809  0.5683554364946687   T   T   T
  0.2450726445647333  0.2435796514807550  0.5739917848173838   T   T   T
  0.4952719381722259 -0.0097957283623679  0.5738222855579248   T   T   T
  0.2624808385862268 -0.0086689069211684  0.5680577304342672   T   T   T
  0.4177217024173220  0.4175052556586554  0.4801430454736721   T   T   T
  0.4944025735358359  0.2421020572186719  0.5941479494551537   T   T   T
 -0.0058548904063290  0.7441618745347928  0.5722970181994249   T   T   T
  0.7519214019265090  0.2547070132052507  0.5712298263111921   T   T   T
  0.4145283594668439  0.6663940173910169  0.4776004595541112   T   T   T
  0.7459683545409669  0.5024119793819138  0.5684271417048257   T   T   T
  0.9167661669938166  0.9212223157777142  0.4817152687002628   T   T   T
  0.0013326579323804  0.4976577245360614  0.5713572063654003   T   T   T
  0.4997062988790142  0.7489643531499989  0.5623678755471118   T   T   T
  0.6648222486287005  0.6681622874385422  0.4741029423287272   T   T   T
 -0.0032523219099313  0.2576195115982111  0.5680793530504269   T   T   T
  0.6681298932676122  0.1674766446722065  0.4791630899024495   T   T   T
  0.7526334377344185 -0.0100605599957078  0.5738627476280389   T   T   T
  0.0044689241609984  0.0029485591586077  0.5740210747620061   T   T   T
  0.9155598507586131  0.1649074741702648  0.4791192296213565   T   T   T
  0.2406440938614519  0.5030820456926214  0.5800077925445939   T   T   T
  0.5030376136394318  0.5035944861708105  0.5716527354222135   T   T   T
  0.8333333333333357  0.5833333333333357  0.3817991009012260   F   F   F
 
  0.00000000E+00  0.00000000E+00  0.00000000E+00
  0.00000000E+00  0.00000000E+00  0.00000000E+00
  0.00000000E+00  0.00000000E+00  0.00000000E+00
  0.00000000E+00  0.00000000E+00  0.00000000E+00
  0.00000000E+00  0.00000000E+00  0.00000000E+00
  0.00000000E+00  0.00000000E+00  0.00000000E+00
  0.00000000E+00  0.00000000E+00  0.00000000E+00
  0.00000000E+00  0.00000000E+00  0.00000000E+00
  0.00000000E+00  0.00000000E+00  0.00000000E+00
  0.00000000E+00  0.00000000E+00  0.00000000E+00
  0.00000000E+00  0.00000000E+00  0.00000000E+00
  0.00000000E+00  0.00000000E+00  0.00000000E+00
  0.00000000E+00  0.00000000E+00  0.00000000E+00
  0.00000000E+00  0.00000000E+00  0.00000000E+00
  0.00000000E+00  0.00000000E+00  0.00000000E+00
  0.00000000E+00  0.00000000E+00  0.00000000E+00
  0.00000000E+00  0.00000000E+00  0.00000000E+00
  0.00000000E+00  0.00000000E+00  0.00000000E+00
  0.00000000E+00  0.00000000E+00  0.00000000E+00
  0.00000000E+00  0.00000000E+00  0.00000000E+00
  0.00000000E+00  0.00000000E+00  0.00000000E+00
  0.00000000E+00  0.00000000E+00  0.00000000E+00
  0.00000000E+00  0.00000000E+00  0.00000000E+00
  0.00000000E+00  0.00000000E+00  0.00000000E+00
  0.00000000E+00  0.00000000E+00  0.00000000E+00
  0.00000000E+00  0.00000000E+00  0.00000000E+00
  0.00000000E+00  0.00000000E+00  0.00000000E+00
  0.00000000E+00  0.00000000E+00  0.00000000E+00
  0.00000000E+00  0.00000000E+00  0.00000000E+00
  0.00000000E+00  0.00000000E+00  0.00000000E+00
  0.00000000E+00  0.00000000E+00  0.00000000E+00
  0.00000000E+00  0.00000000E+00  0.00000000E+00
  0.00000000E+00  0.00000000E+00  0.00000000E+00
  0.00000000E+00  0.00000000E+00  0.00000000E+00
  0.00000000E+00  0.00000000E+00  0.00000000E+00
  0.00000000E+00  0.00000000E+00  0.00000000E+00
  0.00000000E+00  0.00000000E+00  0.00000000E+00
  0.00000000E+00  0.00000000E+00  0.00000000E+00
  0.00000000E+00  0.00000000E+00  0.00000000E+00
  0.00000000E+00  0.00000000E+00  0.00000000E+00
  0.00000000E+00  0.00000000E+00  0.00000000E+00
  0.00000000E+00  0.00000000E+00  0.00000000E+00
  0.00000000E+00  0.00000000E+00  0.00000000E+00
  0.00000000E+00  0.00000000E+00  0.00000000E+00
  0.00000000E+00  0.00000000E+00  0.00000000E+00
  0.00000000E+00  0.00000000E+00  0.00000000E+00
  0.00000000E+00  0.00000000E+00  0.00000000E+00
  0.00000000E+00  0.00000000E+00  0.00000000E+00
  0.00000000E+00  0.00000000E+00  0.00000000E+00
  0.00000000E+00  0.00000000E+00  0.00000000E+00
  0.00000000E+00  0.00000000E+00  0.00000000E+00
  0.00000000E+00  0.00000000E+00  0.00000000E+00
  0.00000000E+00  0.00000000E+00  0.00000000E+00
  0.00000000E+00  0.00000000E+00  0.00000000E+00
  0.00000000E+00  0.00000000E+00  0.00000000E+00
  0.00000000E+00  0.00000000E+00  0.00000000E+00
