Au Pd                                   
   1.00000000000000     
    11.0025815152626798    0.0000000000000000    0.0000000000000000
     5.5012907576313399    9.5285150994265617    0.0000000000000000
     0.0000000000000000    0.0000000000000000   24.4917850942952882
   Au   Pd
    24    24
Direct
  0.2514170387658184  0.7464036901936044  0.6041102580637486
  0.5800060668951019  0.3380844006947710  0.3926141988259089
  0.5005144500771068  0.0012743201585730  0.6004964990565358
  0.5813644809235424  0.8308059615342096  0.3935262407595315
  0.5813797932231060  0.0852181503392855  0.3930144433553017
  0.6646089901200244  0.9180296714526404  0.4973419751388138
  0.5014911792387117  0.7477333765130167  0.6023766438862802
  0.8359765172872496  0.0849283127565452  0.3942103645900427
  0.1705471665102853  0.6647681994376526  0.4998305566319382
  0.6663806514912591  0.1672180777727125  0.4980881705506148
  0.2499582151070354  0.2541481621791896  0.6003050572531874
  0.7484766219868434  0.0015629209957988  0.6052111847292577
  0.6655113744769701  0.4165025309749575  0.4991215333070582
  0.2498076681811969  0.0004139886795643  0.6017551417464424
 -0.0000710763680535  0.7464457557773571  0.6065962923313917
  0.9189452968374697  0.9175974106875082  0.4988708190718985
  0.9198809640793958  0.6646497369332378  0.4986978453341652
  0.6646799012138036  0.6675091069138935  0.4986996565714023
 -0.0018163277026317  0.2519570706648160  0.6038493436694267
  0.9203298311389925  0.4131153592172169  0.5001921897337713
  0.7495661781346169  0.4999330591341344  0.6068912650138156
 -0.0021258443700424  0.0009203696469581  0.6039221275708987
  0.8366615374234513  0.8297044167623711  0.3908881477593504
  0.3296002202855514  0.0846962373374505  0.4003299062724903
  0.4999085154367401  0.4969866367591118  0.5960131541864772
  0.8340685036301524  0.3348663118378943  0.4026146311610704
  0.7484641621578230  0.2510436852335490  0.5965675644377502
  0.8335509441870704  0.5817285947031504  0.4010290339748225
  0.4149461061270859  0.9174739850492849  0.5002267472010439
  0.4152807109562135  0.6685101579276921  0.5014399089544617
  0.0824162340892940  0.0835986747103929  0.4061159865657642
  0.4998525826835767  0.2521795761444416  0.5942151823378580
  0.9199420585859752  0.1646931925463145  0.5006833096078616
  0.0822821535463452  0.3349696445218365  0.4033204204193537
  0.0841726163662687  0.5819283317082502  0.4020574752316738
 -0.0001112867055764  0.5006874122061921  0.5975649154244822
  0.0849026018273819  0.8330716763469993  0.4032024175063230
  0.1688165858852523  0.1650552674294366  0.5010794257438977
  0.5816510093232333  0.5838799314095977  0.4024851570052677
  0.3301665766216360  0.3361576699654504  0.4023298542342672
  0.3316638640090406  0.5852359710054963  0.4029497156172397
  0.2511566870935770  0.4993559180314794  0.5955834834192495
  0.3316577529477518  0.8319680485739416  0.4059627710896761
  0.1682774854054191  0.9174933674004055  0.5022829899727776
  0.4153104715004645  0.1674616688095857  0.4984373717700966
  0.4169357359448479  0.4158978518926874  0.4974705091094424
  0.1709705543211528  0.4126660308123423  0.4992846294256301
  0.7506264791024688  0.7494701082170019  0.5961434843802405
 
  0.00000000E+00  0.00000000E+00  0.00000000E+00
  0.00000000E+00  0.00000000E+00  0.00000000E+00
  0.00000000E+00  0.00000000E+00  0.00000000E+00
  0.00000000E+00  0.00000000E+00  0.00000000E+00
  0.00000000E+00  0.00000000E+00  0.00000000E+00
  0.00000000E+00  0.00000000E+00  0.00000000E+00
  0.00000000E+00  0.00000000E+00  0.00000000E+00
  0.00000000E+00  0.00000000E+00  0.00000000E+00
  0.00000000E+00  0.00000000E+00  0.00000000E+00
  0.00000000E+00  0.00000000E+00  0.00000000E+00
  0.00000000E+00  0.00000000E+00  0.00000000E+00
  0.00000000E+00  0.00000000E+00  0.00000000E+00
  0.00000000E+00  0.00000000E+00  0.00000000E+00
  0.00000000E+00  0.00000000E+00  0.00000000E+00
  0.00000000E+00  0.00000000E+00  0.00000000E+00
  0.00000000E+00  0.00000000E+00  0.00000000E+00
  0.00000000E+00  0.00000000E+00  0.00000000E+00
  0.00000000E+00  0.00000000E+00  0.00000000E+00
  0.00000000E+00  0.00000000E+00  0.00000000E+00
  0.00000000E+00  0.00000000E+00  0.00000000E+00
  0.00000000E+00  0.00000000E+00  0.00000000E+00
  0.00000000E+00  0.00000000E+00  0.00000000E+00
  0.00000000E+00  0.00000000E+00  0.00000000E+00
  0.00000000E+00  0.00000000E+00  0.00000000E+00
  0.00000000E+00  0.00000000E+00  0.00000000E+00
  0.00000000E+00  0.00000000E+00  0.00000000E+00
  0.00000000E+00  0.00000000E+00  0.00000000E+00
  0.00000000E+00  0.00000000E+00  0.00000000E+00
  0.00000000E+00  0.00000000E+00  0.00000000E+00
  0.00000000E+00  0.00000000E+00  0.00000000E+00
  0.00000000E+00  0.00000000E+00  0.00000000E+00
  0.00000000E+00  0.00000000E+00  0.00000000E+00
  0.00000000E+00  0.00000000E+00  0.00000000E+00
  0.00000000E+00  0.00000000E+00  0.00000000E+00
  0.00000000E+00  0.00000000E+00  0.00000000E+00
  0.00000000E+00  0.00000000E+00  0.00000000E+00
  0.00000000E+00  0.00000000E+00  0.00000000E+00
  0.00000000E+00  0.00000000E+00  0.00000000E+00
  0.00000000E+00  0.00000000E+00  0.00000000E+00
  0.00000000E+00  0.00000000E+00  0.00000000E+00
  0.00000000E+00  0.00000000E+00  0.00000000E+00
  0.00000000E+00  0.00000000E+00  0.00000000E+00
  0.00000000E+00  0.00000000E+00  0.00000000E+00
  0.00000000E+00  0.00000000E+00  0.00000000E+00
  0.00000000E+00  0.00000000E+00  0.00000000E+00
  0.00000000E+00  0.00000000E+00  0.00000000E+00
  0.00000000E+00  0.00000000E+00  0.00000000E+00
  0.00000000E+00  0.00000000E+00  0.00000000E+00
