Au  O Pd                                
   1.00000000000000     
    11.0025815152626798    0.0000000000000000    0.0000000000000000
     5.5012907576313399    9.5285150994265617    0.0000000000000000
     0.0000000000000000    0.0000000000000000   26.1917850942952910
   Au   O    Pd
    24     8    24
Selective dynamics
Direct
  0.0833333333333357  0.0833333333333357  0.3817991009012260   F   F   F
  0.2430059439951086  0.4899055069556246  0.5681401687609310   T   T   T
  0.4246444036342860  0.6604120490917883  0.5015532374458832   T   T   T
  0.6636630959906210  0.1661808798601242  0.4714330956244623   T   T   T
  0.9991147947644698  0.9905429565891748  0.5694771040805050   T   T   T
  0.8333333333333357  0.0833333333333357  0.3817991009012260   F   F   F
  0.0833333333333357  0.3333333333333357  0.3817991009012260   F   F   F
  0.9080430126517578  0.4183370501866716  0.4773024815263187   T   T   T
  0.5355492603592881  0.7050410188544092  0.6482298615629501   T   T   T
  0.0833333333333357  0.5833333333333357  0.3817991009012260   F   F   F
  0.4176631327918408  0.9109939965715916  0.4779137054335204   T   T   T
  0.9166536614121603  0.9128647775078513  0.4754281737595666   T   T   T
  0.5506430203097562  0.4128271654859393  0.6328078532947343   T   T   T
  0.0011092573688113  0.7403232208728299  0.5684704453391022   T   T   T
  0.4153677290269664  0.4189233392193571  0.4748545366776073   T   T   T
  0.1602468368117036  0.1675214303483335  0.4771500711498217   T   T   T
  0.2502120967556283  0.9927657510585165  0.5718696857238758   T   T   T
  0.4113532321545330  0.1666696878494548  0.4749640063985963   T   T   T
  0.7425069219917476  0.7479397957261218  0.5597909912662671   T   T   T
  0.2778001314881163  0.7420380284905599  0.5959130348127382   T   T   T
  0.1719768922097921  0.9086420515079866  0.4752114527305432   T   T   T
  0.6709877793050921  0.5341229523194927  0.5590933365193258   T   T   T
  0.3333333333333357  0.5833333333333357  0.3817991009012260   F   F   F
  0.1675181909719942  0.6641254680770401  0.4763065276113208   T   T   T
  0.8289718658959858  0.4914694177516301  0.6182308725577481   T   T   T
  0.0941632576080157  0.3199541943231853  0.6164739321959097   T   T   T
  0.0651724498080137  0.0769639785557824  0.6266209155643435   T   T   T
  0.7601161971566525  0.2649634109592362  0.6331255614119677   T   T   T
  0.3393673295129183  0.5381698364972090  0.6279857464731396   T   T   T
  0.5868487541570794  0.8386511472677259  0.6201379435597292   T   T   T
  0.5861420402599473  0.0902404280390025  0.6075711744321181   T   T   T
  0.5316756077899699  0.5570685591334458  0.6862731541563328   T   T   T
  0.2483449942383781  0.2374929353503066  0.5665686216537220   T   T   T
  0.1595007363391671  0.4189700263386945  0.4790038892602251   T   T   T
  0.3333333333333357  0.3333333333333357  0.3817991009012260   F   F   F
  0.5833333333333357  0.0833333333333357  0.3817991009012260   F   F   F
  0.4884971287853740  0.0008107142406827  0.5697301286595241   T   T   T
  0.3333333333333357  0.0833333333333357  0.3817991009012260   F   F   F
  0.5833333333333357  0.3333333333333357  0.3817991009012260   F   F   F
  0.8333333333333357  0.8333333333333357  0.3817991009012260   F   F   F
  0.4974384355502632  0.2603597124035938  0.5638535467399768   T   T   T
  0.6608498894659519  0.6677793915650688  0.4677007219287282   T   T   T
  0.5833333333333357  0.5833333333333357  0.3817991009012260   F   F   F
  0.3333333333333357  0.8333333333333357  0.3817991009012260   F   F   F
  0.6635640498780996  0.9150631790355709  0.4692893790551390   T   T   T
  0.9816269979671731  0.4922875647163537  0.5723398560888647   T   T   T
  0.5833333333333357  0.8333333333333357  0.3817991009012260   F   F   F
  0.9101496823940380  0.6655874617041071  0.4750569864676957   T   T   T
  0.9351099641739813  0.2826445938944352  0.6227461818876281   T   T   T
  0.9142076357291831  0.1662596684481059  0.4726505460521431   T   T   T
  0.7503117117558940  0.9957181610591952  0.5620961051221449   T   T   T
  0.8333333333333357  0.5833333333333357  0.3817991009012260   F   F   F
  0.8333333333333357  0.3333333333333357  0.3817991009012260   F   F   F
  0.6605239303378506  0.4185438092403415  0.4683957625271225   T   T   T
  0.7532317258134414  0.2480693117326161  0.5572665919531767   T   T   T
  0.0833333333333357  0.8333333333333357  0.3817991009012260   F   F   F
 
  0.00000000E+00  0.00000000E+00  0.00000000E+00
  0.00000000E+00  0.00000000E+00  0.00000000E+00
  0.00000000E+00  0.00000000E+00  0.00000000E+00
  0.00000000E+00  0.00000000E+00  0.00000000E+00
  0.00000000E+00  0.00000000E+00  0.00000000E+00
  0.00000000E+00  0.00000000E+00  0.00000000E+00
  0.00000000E+00  0.00000000E+00  0.00000000E+00
  0.00000000E+00  0.00000000E+00  0.00000000E+00
  0.00000000E+00  0.00000000E+00  0.00000000E+00
  0.00000000E+00  0.00000000E+00  0.00000000E+00
  0.00000000E+00  0.00000000E+00  0.00000000E+00
  0.00000000E+00  0.00000000E+00  0.00000000E+00
  0.00000000E+00  0.00000000E+00  0.00000000E+00
  0.00000000E+00  0.00000000E+00  0.00000000E+00
  0.00000000E+00  0.00000000E+00  0.00000000E+00
  0.00000000E+00  0.00000000E+00  0.00000000E+00
  0.00000000E+00  0.00000000E+00  0.00000000E+00
  0.00000000E+00  0.00000000E+00  0.00000000E+00
  0.00000000E+00  0.00000000E+00  0.00000000E+00
  0.00000000E+00  0.00000000E+00  0.00000000E+00
  0.00000000E+00  0.00000000E+00  0.00000000E+00
  0.00000000E+00  0.00000000E+00  0.00000000E+00
  0.00000000E+00  0.00000000E+00  0.00000000E+00
  0.00000000E+00  0.00000000E+00  0.00000000E+00
  0.00000000E+00  0.00000000E+00  0.00000000E+00
  0.00000000E+00  0.00000000E+00  0.00000000E+00
  0.00000000E+00  0.00000000E+00  0.00000000E+00
  0.00000000E+00  0.00000000E+00  0.00000000E+00
  0.00000000E+00  0.00000000E+00  0.00000000E+00
  0.00000000E+00  0.00000000E+00  0.00000000E+00
  0.00000000E+00  0.00000000E+00  0.00000000E+00
  0.00000000E+00  0.00000000E+00  0.00000000E+00
  0.00000000E+00  0.00000000E+00  0.00000000E+00
  0.00000000E+00  0.00000000E+00  0.00000000E+00
  0.00000000E+00  0.00000000E+00  0.00000000E+00
  0.00000000E+00  0.00000000E+00  0.00000000E+00
  0.00000000E+00  0.00000000E+00  0.00000000E+00
  0.00000000E+00  0.00000000E+00  0.00000000E+00
  0.00000000E+00  0.00000000E+00  0.00000000E+00
  0.00000000E+00  0.00000000E+00  0.00000000E+00
  0.00000000E+00  0.00000000E+00  0.00000000E+00
  0.00000000E+00  0.00000000E+00  0.00000000E+00
  0.00000000E+00  0.00000000E+00  0.00000000E+00
  0.00000000E+00  0.00000000E+00  0.00000000E+00
  0.00000000E+00  0.00000000E+00  0.00000000E+00
  0.00000000E+00  0.00000000E+00  0.00000000E+00
  0.00000000E+00  0.00000000E+00  0.00000000E+00
  0.00000000E+00  0.00000000E+00  0.00000000E+00
  0.00000000E+00  0.00000000E+00  0.00000000E+00
  0.00000000E+00  0.00000000E+00  0.00000000E+00
  0.00000000E+00  0.00000000E+00  0.00000000E+00
  0.00000000E+00  0.00000000E+00  0.00000000E+00
  0.00000000E+00  0.00000000E+00  0.00000000E+00
  0.00000000E+00  0.00000000E+00  0.00000000E+00
  0.00000000E+00  0.00000000E+00  0.00000000E+00
  0.00000000E+00  0.00000000E+00  0.00000000E+00
