Au  O Pd                                
   1.00000000000000     
    11.0025815152626798    0.0000000000000000    0.0000000000000000
     5.5012907576313399    9.5285150994265617    0.0000000000000000
     0.0000000000000000    0.0000000000000000   26.1917850942952910
   Au   O    Pd
    24     8    24
Selective dynamics
Direct
  0.0833333333333357  0.0833333333333357  0.3817991009012260   F   F   F
  0.2432001284353304  0.4900171422614647  0.5683012337242085   T   T   T
  0.4242532234352177  0.6607531279132756  0.5009554881739727   T   T   T
  0.6637026246442648  0.1663186265749252  0.4713451506251350   T   T   T
 -0.0010765446656030 -0.0105048346889430  0.5698485027927133   T   T   T
  0.8333333333333357  0.0833333333333357  0.3817991009012260   F   F   F
  0.0833333333333357  0.3333333333333357  0.3817991009012260   F   F   F
  0.9079082652380293  0.4184360569729175  0.4774690694182060   T   T   T
  0.5358269142650419  0.7053066881661563  0.6483068669639622   T   T   T
  0.0833333333333357  0.5833333333333357  0.3817991009012260   F   F   F
  0.4173990220264444  0.9112392757385299  0.4779714976878348   T   T   T
  0.9164189521781293  0.9130729659533704  0.4754201720206412   T   T   T
  0.5510029882543770  0.4129582536064982  0.6327495692320954   T   T   T
  0.0008909599385367  0.7399921152001425  0.5684355438360801   T   T   T
  0.4152524114041938  0.4191138682023519  0.4750288524946910   T   T   T
  0.1604133639804703  0.1678536934565502  0.4769957056052314   T   T   T
  0.2493891932855166 -0.0068504959726442  0.5717064442769585   T   T   T
  0.4114948383755361  0.1668433796029385  0.4749064831314070   T   T   T
  0.7424844890540578  0.7475876364026511  0.5599929328347865   T   T   T
  0.2803265163657352  0.7417157856000328  0.5960006485258550   T   T   T
  0.1715022384720864  0.9092244545544281  0.4750223091571447   T   T   T
  0.6705973867904369  0.5340991718728769  0.5589515918985307   T   T   T
  0.3333333333333357  0.5833333333333357  0.3817991009012260   F   F   F
  0.1672805042447635  0.6645023254715834  0.4764916827408623   T   T   T
  0.8290415037547161  0.4913015763834221  0.6179565604753883   T   T   T
  0.0942382738809694  0.3199474800884297  0.6164722285048365   T   T   T
  0.0657798706837383  0.0765454678732258  0.6265736105240828   T   T   T
  0.7603187829178846  0.2649048410675582  0.6330255278798483   T   T   T
  0.3395734111557259  0.5386768298453448  0.6280063896468593   T   T   T
  0.5862624680231391  0.8393207803050435  0.6200860156539149   T   T   T
  0.5855317533073735  0.0898280269734668  0.6074414767429109   T   T   T
  0.5320543609799702  0.5573087304290506  0.6862947735640599   T   T   T
  0.2482093838380398  0.2375791467567950  0.5665070386070645   T   T   T
  0.1595315256135866  0.4192958852566880  0.4790318110976291   T   T   T
  0.3333333333333357  0.3333333333333357  0.3817991009012260   F   F   F
  0.5833333333333357  0.0833333333333357  0.3817991009012260   F   F   F
  0.4879019086771656  0.0007169536736363  0.5694622493289128   T   T   T
  0.3333333333333357  0.0833333333333357  0.3817991009012260   F   F   F
  0.5833333333333357  0.3333333333333357  0.3817991009012260   F   F   F
  0.8333333333333357  0.8333333333333357  0.3817991009012260   F   F   F
  0.4974270069486316  0.2602773402254134  0.5638968793658743   T   T   T
  0.6606022048548272  0.6679261168394048  0.4676737879469250   T   T   T
  0.5833333333333357  0.5833333333333357  0.3817991009012260   F   F   F
  0.3333333333333357  0.8333333333333357  0.3817991009012260   F   F   F
  0.6634414833251920  0.9150327261217316  0.4693101952270469   T   T   T
 -0.0179199033796473  0.4917462703163228  0.5720603478730266   T   T   T
  0.5833333333333357  0.8333333333333357  0.3817991009012260   F   F   F
  0.9098943801587097  0.6656767856346310  0.4751024147711297   T   T   T
  0.9353387682484752  0.2824362842873692  0.6226265135164298   T   T   T
  0.9144899451719471  0.1662808542421545  0.4727416146081417   T   T   T
  0.7496613613409304 -0.0043931190359905  0.5619017871309245   T   T   T
  0.8333333333333357  0.5833333333333357  0.3817991009012260   F   F   F
  0.8333333333333357  0.3333333333333357  0.3817991009012260   F   F   F
  0.6606117917981661  0.4183860970828739  0.4683591666063750   T   T   T
  0.7534461260314678  0.2476567766183876  0.5572294067372239   T   T   T
  0.0833333333333357  0.8333333333333357  0.3817991009012260   F   F   F
 
  0.00000000E+00  0.00000000E+00  0.00000000E+00
  0.00000000E+00  0.00000000E+00  0.00000000E+00
  0.00000000E+00  0.00000000E+00  0.00000000E+00
  0.00000000E+00  0.00000000E+00  0.00000000E+00
  0.00000000E+00  0.00000000E+00  0.00000000E+00
  0.00000000E+00  0.00000000E+00  0.00000000E+00
  0.00000000E+00  0.00000000E+00  0.00000000E+00
  0.00000000E+00  0.00000000E+00  0.00000000E+00
  0.00000000E+00  0.00000000E+00  0.00000000E+00
  0.00000000E+00  0.00000000E+00  0.00000000E+00
  0.00000000E+00  0.00000000E+00  0.00000000E+00
  0.00000000E+00  0.00000000E+00  0.00000000E+00
  0.00000000E+00  0.00000000E+00  0.00000000E+00
  0.00000000E+00  0.00000000E+00  0.00000000E+00
  0.00000000E+00  0.00000000E+00  0.00000000E+00
  0.00000000E+00  0.00000000E+00  0.00000000E+00
  0.00000000E+00  0.00000000E+00  0.00000000E+00
  0.00000000E+00  0.00000000E+00  0.00000000E+00
  0.00000000E+00  0.00000000E+00  0.00000000E+00
  0.00000000E+00  0.00000000E+00  0.00000000E+00
  0.00000000E+00  0.00000000E+00  0.00000000E+00
  0.00000000E+00  0.00000000E+00  0.00000000E+00
  0.00000000E+00  0.00000000E+00  0.00000000E+00
  0.00000000E+00  0.00000000E+00  0.00000000E+00
  0.00000000E+00  0.00000000E+00  0.00000000E+00
  0.00000000E+00  0.00000000E+00  0.00000000E+00
  0.00000000E+00  0.00000000E+00  0.00000000E+00
  0.00000000E+00  0.00000000E+00  0.00000000E+00
  0.00000000E+00  0.00000000E+00  0.00000000E+00
  0.00000000E+00  0.00000000E+00  0.00000000E+00
  0.00000000E+00  0.00000000E+00  0.00000000E+00
  0.00000000E+00  0.00000000E+00  0.00000000E+00
  0.00000000E+00  0.00000000E+00  0.00000000E+00
  0.00000000E+00  0.00000000E+00  0.00000000E+00
  0.00000000E+00  0.00000000E+00  0.00000000E+00
  0.00000000E+00  0.00000000E+00  0.00000000E+00
  0.00000000E+00  0.00000000E+00  0.00000000E+00
  0.00000000E+00  0.00000000E+00  0.00000000E+00
  0.00000000E+00  0.00000000E+00  0.00000000E+00
  0.00000000E+00  0.00000000E+00  0.00000000E+00
  0.00000000E+00  0.00000000E+00  0.00000000E+00
  0.00000000E+00  0.00000000E+00  0.00000000E+00
  0.00000000E+00  0.00000000E+00  0.00000000E+00
  0.00000000E+00  0.00000000E+00  0.00000000E+00
  0.00000000E+00  0.00000000E+00  0.00000000E+00
  0.00000000E+00  0.00000000E+00  0.00000000E+00
  0.00000000E+00  0.00000000E+00  0.00000000E+00
  0.00000000E+00  0.00000000E+00  0.00000000E+00
  0.00000000E+00  0.00000000E+00  0.00000000E+00
  0.00000000E+00  0.00000000E+00  0.00000000E+00
  0.00000000E+00  0.00000000E+00  0.00000000E+00
  0.00000000E+00  0.00000000E+00  0.00000000E+00
  0.00000000E+00  0.00000000E+00  0.00000000E+00
  0.00000000E+00  0.00000000E+00  0.00000000E+00
  0.00000000E+00  0.00000000E+00  0.00000000E+00
  0.00000000E+00  0.00000000E+00  0.00000000E+00
