Au Pd                                   
   1.00000000000000     
    11.0025815152626798    0.0000000000000000    0.0000000000000000
     5.5012907576313399    9.5285150994265617    0.0000000000000000
     0.0000000000000000    0.0000000000000000   24.4917850942952882
   Au   Pd
    24    24
Selective dynamics
Direct
  0.0833333333333357  0.0833333333333357  0.4083001692812189   F   F   F
  0.2472991331451918  0.0027041215965019  0.6100141223810233   T   T   T
  0.9186519065330552  0.4141204624767261  0.5069840859671003   T   T   T
 -0.0001660622043241  0.7486532330097977  0.6122225945612300   T   T   T
  0.0833333333333357  0.8333333333333357  0.4083001692812189   F   F   F
  0.0833333333333357  0.5833333333333357  0.4083001692812189   F   F   F
  0.3333333333333357  0.3333333333333357  0.4083001692812189   F   F   F
  0.2490598524227631  0.7501355758159758  0.6139576503232556   T   T   T
  0.2468108648541375  0.2533767810193950  0.6074967498293945   T   T   T
  0.1710747460169730  0.6636193503849505  0.5093756141447675   T   T   T
  0.1691146546127691  0.9166343814739190  0.5084998577983451   T   T   T
  0.5005106928025619 -0.0002517521627008  0.6072160848464905   T   T   T
  0.9150736954372106  0.6675021849454301  0.5088918169924350   T   T   T
  0.4987707080217659  0.2515509120455256  0.6066092945788906   T   T   T
  0.5833333333333357  0.5833333333333357  0.4083001692812189   F   F   F
  0.4989932170764897  0.5006017896833080  0.6080601713974123   T   T   T
  0.5833333333333357  0.8333333333333357  0.4083001692812189   F   F   F
  0.5009272263990688  0.7503641145981571  0.6075218939415504   T   T   T
  0.7517261438183918 -0.0012876720980911  0.6078849561638366   T   T   T
  0.8333333333333357  0.3333333333333357  0.4083001692812189   F   F   F
  0.7536920065082531  0.2481625162078085  0.6077046797731007   T   T   T
  0.7534923693960734  0.5001652308020840  0.6093686283380686   T   T   T
  0.8333333333333357  0.8333333333333357  0.4083001692812189   F   F   F
  0.5833333333333357  0.3333333333333357  0.4083001692812189   F   F   F
  0.4192595785157519  0.4147147622468175  0.5072426593963359   T   T   T
  0.3333333333333357  0.0833333333333357  0.4083001692812189   F   F   F
  0.4176266509221934  0.1655880131211283  0.5057938043198553   T   T   T
  0.5833333333333357  0.0833333333333357  0.4083001692812189   F   F   F
  0.3333333333333357  0.5833333333333357  0.4083001692812189   F   F   F
  0.1703696098816744  0.1652860687431072  0.5065501773910913   T   T   T
  0.3333333333333357  0.8333333333333357  0.4083001692812189   F   F   F
  0.2487196771982317  0.5002942920423779  0.6054046641911784   T   T   T
  0.9147225041170823  0.9189145751762365  0.5081686769519596   T   T   T
  0.6646984053410895  0.9191320975392429  0.5069783542370055   T   T   T
  0.4192646704754897  0.6652458166824583  0.5068519686628784   T   T   T
  0.6677727183164442  0.1652720537741260  0.5062946290753400   T   T   T
  0.6650413486019159  0.6674005402914063  0.5077275813060890   T   T   T
  0.9157315616264078  0.1653183641771576  0.5073804852154655   T   T   T
  0.8333333333333357  0.0833333333333357  0.4083001692812189   F   F   F
  0.0008619813908764 -0.0003799365567859  0.6045546833046401   T   T   T
  0.0004602766574532  0.2497602125386013  0.6036086120149360   T   T   T
  0.4182731669052783  0.9167923766129881  0.5063700202703360   T   T   T
  0.6659244952863143  0.4161128473885240  0.5087194808711386   T   T   T
  0.0833333333333357  0.3333333333333357  0.4083001692812189   F   F   F
  0.8333333333333357  0.5833333333333357  0.4083001692812189   F   F   F
  0.1705241228823438  0.4129462746633053  0.5075956525908583   T   T   T
  0.0004176390683275  0.5001210525200304  0.6048834923334443   T   T   T
  0.7504961330795701  0.7501271745459868  0.6048697890403509   T   T   T
 
  0.00000000E+00  0.00000000E+00  0.00000000E+00
  0.00000000E+00  0.00000000E+00  0.00000000E+00
  0.00000000E+00  0.00000000E+00  0.00000000E+00
  0.00000000E+00  0.00000000E+00  0.00000000E+00
  0.00000000E+00  0.00000000E+00  0.00000000E+00
  0.00000000E+00  0.00000000E+00  0.00000000E+00
  0.00000000E+00  0.00000000E+00  0.00000000E+00
  0.00000000E+00  0.00000000E+00  0.00000000E+00
  0.00000000E+00  0.00000000E+00  0.00000000E+00
  0.00000000E+00  0.00000000E+00  0.00000000E+00
  0.00000000E+00  0.00000000E+00  0.00000000E+00
  0.00000000E+00  0.00000000E+00  0.00000000E+00
  0.00000000E+00  0.00000000E+00  0.00000000E+00
  0.00000000E+00  0.00000000E+00  0.00000000E+00
  0.00000000E+00  0.00000000E+00  0.00000000E+00
  0.00000000E+00  0.00000000E+00  0.00000000E+00
  0.00000000E+00  0.00000000E+00  0.00000000E+00
  0.00000000E+00  0.00000000E+00  0.00000000E+00
  0.00000000E+00  0.00000000E+00  0.00000000E+00
  0.00000000E+00  0.00000000E+00  0.00000000E+00
  0.00000000E+00  0.00000000E+00  0.00000000E+00
  0.00000000E+00  0.00000000E+00  0.00000000E+00
  0.00000000E+00  0.00000000E+00  0.00000000E+00
  0.00000000E+00  0.00000000E+00  0.00000000E+00
  0.00000000E+00  0.00000000E+00  0.00000000E+00
  0.00000000E+00  0.00000000E+00  0.00000000E+00
  0.00000000E+00  0.00000000E+00  0.00000000E+00
  0.00000000E+00  0.00000000E+00  0.00000000E+00
  0.00000000E+00  0.00000000E+00  0.00000000E+00
  0.00000000E+00  0.00000000E+00  0.00000000E+00
  0.00000000E+00  0.00000000E+00  0.00000000E+00
  0.00000000E+00  0.00000000E+00  0.00000000E+00
  0.00000000E+00  0.00000000E+00  0.00000000E+00
  0.00000000E+00  0.00000000E+00  0.00000000E+00
  0.00000000E+00  0.00000000E+00  0.00000000E+00
  0.00000000E+00  0.00000000E+00  0.00000000E+00
  0.00000000E+00  0.00000000E+00  0.00000000E+00
  0.00000000E+00  0.00000000E+00  0.00000000E+00
  0.00000000E+00  0.00000000E+00  0.00000000E+00
  0.00000000E+00  0.00000000E+00  0.00000000E+00
  0.00000000E+00  0.00000000E+00  0.00000000E+00
  0.00000000E+00  0.00000000E+00  0.00000000E+00
  0.00000000E+00  0.00000000E+00  0.00000000E+00
  0.00000000E+00  0.00000000E+00  0.00000000E+00
  0.00000000E+00  0.00000000E+00  0.00000000E+00
  0.00000000E+00  0.00000000E+00  0.00000000E+00
  0.00000000E+00  0.00000000E+00  0.00000000E+00
  0.00000000E+00  0.00000000E+00  0.00000000E+00
