Au  O Pd                                
   1.00000000000000     
    11.0025815152626798    0.0000000000000000    0.0000000000000000
     5.5012907576313399    9.5285150994265617    0.0000000000000000
     0.0000000000000000    0.0000000000000000   26.1917850942952910
   Au   O    Pd
    24     8    24
Selective dynamics
Direct
  0.9106845702884865  0.9183203141533881  0.4735706767361573   T   T   T
  0.0833333333333357  0.8333333333333357  0.3817991009012260   F   F   F
  0.9130002191837772  0.1678277427813326  0.4755192015737730   T   T   T
  0.0124628921351300  0.0009952978740484  0.5697438182110770   T   T   T
  0.5833333333333357  0.3333333333333357  0.3817991009012260   F   F   F
  0.9111734848855272  0.4186662400725186  0.4789581923520722   T   T   T
  0.0343396753976158  0.2253445834725076  0.6035693155334433   T   T   T
  0.4977005881515871  0.0047549348884562  0.5623458986565427   T   T   T
  0.8333333333333357  0.5833333333333357  0.3817991009012260   F   F   F
  0.9989129816980267  0.4950025937122509  0.5680806968525668   T   T   T
  0.5833333333333357  0.8333333333333357  0.3817991009012260   F   F   F
  0.1676278521060140  0.6646848375407334  0.4739784301544450   T   T   T
  0.4557778696598744  0.7782643970473594  0.6116519823011265   T   T   T
  0.6609580075416044  0.4203853890518781  0.4812228078455059   T   T   T
  0.8333333333333357  0.3333333333333357  0.3817991009012260   F   F   F
  0.1663802150278317  0.1673750670002766  0.4720631590918041   T   T   T
  0.7554436944688868  0.7434993430612622  0.5656875629510154   T   T   T
  0.4190468841908516  0.6654389927083042  0.4762186687388526   T   T   T
  0.3333333333333357  0.3333333333333357  0.3817991009012260   F   F   F
  0.1659940350593936  0.4175176424132273  0.4721255258357621   T   T   T
  0.2426447777918185  0.2436278736253305  0.5616349248903253   T   T   T
  0.4211152760393668  0.9154489715016042  0.4734632699369005   T   T   T
  0.1684438988577587  0.9154813727419296  0.4738961545493906   T   T   T
  0.7570334949143775  0.2493642920325627  0.5701003575856278   T   T   T
  0.3183251273786373  0.3420837325355842  0.6115091026461456   T   T   T
  0.2522211657088140  0.6187016124457256  0.6221186180213980   T   T   T
  0.8311027231144216  0.3422645271114257  0.6259167630055928   T   T   T
  0.5883734470908868  0.8541836845126083  0.6216393549306658   T   T   T
  0.5688535307296042  0.3423488492058873  0.6244417021580526   T   T   T
  0.8620291119816991  0.8309070496607712  0.6143793384439351   T   T   T
  0.5960848831439177  0.0947890513109869  0.6111122164840592   T   T   T
  0.6093126769946583  0.5806302518261124  0.6337181895691396   T   T   T
  0.4231925288865230  0.1670138009046084  0.4748444513229010   T   T   T
  0.5833333333333357  0.0833333333333357  0.3817991009012260   F   F   F
  0.2549539889990459  0.7507158856926008  0.5680676437239295   T   T   T
  0.3333333333333357  0.8333333333333357  0.3817991009012260   F   F   F
  0.2407443954116222  0.5055020132705582  0.5628349551083457   T   T   T
  0.3333333333333357  0.0833333333333357  0.3817991009012260   F   F   F
  0.2592260294008069  0.9927229575097389  0.5638703520983165   T   T   T
  0.5833333333333357  0.5833333333333357  0.3817991009012260   F   F   F
  0.0096791747672045  0.7505612577440541  0.5621487393829183   T   T   T
  0.9125743117510050  0.6672675842889432  0.4743275758906508   T   T   T
  0.0833333333333357  0.5833333333333357  0.3817991009012260   F   F   F
  0.0833333333333357  0.3333333333333357  0.3817991009012260   F   F   F
  0.4969928606668969  0.2673865762180097  0.5687434256963031   T   T   T
  0.0833333333333357  0.0833333333333357  0.3817991009012260   F   F   F
  0.6650068627517296  0.1683560388505091  0.4794147621709143   T   T   T
  0.4529103694170094  0.5449650690628797  0.6268319322274342   T   T   T
  0.6674720808225028  0.9175715433452208  0.4711273361680487   T   T   T
  0.8333333333333357  0.8333333333333357  0.3817991009012260   F   F   F
  0.7516094353623750  0.5050542204045040  0.5758334408150555   T   T   T
  0.6655345102216782  0.6670734269332230  0.4799331187577719   T   T   T
  0.7672408683677729  0.0001303918750211  0.5710253260902992   T   T   T
  0.8333333333333357  0.0833333333333357  0.3817991009012260   F   F   F
  0.4181939293963969  0.4163249526217818  0.4755724270641385   T   T   T
  0.3333333333333357  0.5833333333333357  0.3817991009012260   F   F   F
 
  0.00000000E+00  0.00000000E+00  0.00000000E+00
  0.00000000E+00  0.00000000E+00  0.00000000E+00
  0.00000000E+00  0.00000000E+00  0.00000000E+00
  0.00000000E+00  0.00000000E+00  0.00000000E+00
  0.00000000E+00  0.00000000E+00  0.00000000E+00
  0.00000000E+00  0.00000000E+00  0.00000000E+00
  0.00000000E+00  0.00000000E+00  0.00000000E+00
  0.00000000E+00  0.00000000E+00  0.00000000E+00
  0.00000000E+00  0.00000000E+00  0.00000000E+00
  0.00000000E+00  0.00000000E+00  0.00000000E+00
  0.00000000E+00  0.00000000E+00  0.00000000E+00
  0.00000000E+00  0.00000000E+00  0.00000000E+00
  0.00000000E+00  0.00000000E+00  0.00000000E+00
  0.00000000E+00  0.00000000E+00  0.00000000E+00
  0.00000000E+00  0.00000000E+00  0.00000000E+00
  0.00000000E+00  0.00000000E+00  0.00000000E+00
  0.00000000E+00  0.00000000E+00  0.00000000E+00
  0.00000000E+00  0.00000000E+00  0.00000000E+00
  0.00000000E+00  0.00000000E+00  0.00000000E+00
  0.00000000E+00  0.00000000E+00  0.00000000E+00
  0.00000000E+00  0.00000000E+00  0.00000000E+00
  0.00000000E+00  0.00000000E+00  0.00000000E+00
  0.00000000E+00  0.00000000E+00  0.00000000E+00
  0.00000000E+00  0.00000000E+00  0.00000000E+00
  0.00000000E+00  0.00000000E+00  0.00000000E+00
  0.00000000E+00  0.00000000E+00  0.00000000E+00
  0.00000000E+00  0.00000000E+00  0.00000000E+00
  0.00000000E+00  0.00000000E+00  0.00000000E+00
  0.00000000E+00  0.00000000E+00  0.00000000E+00
  0.00000000E+00  0.00000000E+00  0.00000000E+00
  0.00000000E+00  0.00000000E+00  0.00000000E+00
  0.00000000E+00  0.00000000E+00  0.00000000E+00
  0.00000000E+00  0.00000000E+00  0.00000000E+00
  0.00000000E+00  0.00000000E+00  0.00000000E+00
  0.00000000E+00  0.00000000E+00  0.00000000E+00
  0.00000000E+00  0.00000000E+00  0.00000000E+00
  0.00000000E+00  0.00000000E+00  0.00000000E+00
  0.00000000E+00  0.00000000E+00  0.00000000E+00
  0.00000000E+00  0.00000000E+00  0.00000000E+00
  0.00000000E+00  0.00000000E+00  0.00000000E+00
  0.00000000E+00  0.00000000E+00  0.00000000E+00
  0.00000000E+00  0.00000000E+00  0.00000000E+00
  0.00000000E+00  0.00000000E+00  0.00000000E+00
  0.00000000E+00  0.00000000E+00  0.00000000E+00
  0.00000000E+00  0.00000000E+00  0.00000000E+00
  0.00000000E+00  0.00000000E+00  0.00000000E+00
  0.00000000E+00  0.00000000E+00  0.00000000E+00
  0.00000000E+00  0.00000000E+00  0.00000000E+00
  0.00000000E+00  0.00000000E+00  0.00000000E+00
  0.00000000E+00  0.00000000E+00  0.00000000E+00
  0.00000000E+00  0.00000000E+00  0.00000000E+00
  0.00000000E+00  0.00000000E+00  0.00000000E+00
  0.00000000E+00  0.00000000E+00  0.00000000E+00
  0.00000000E+00  0.00000000E+00  0.00000000E+00
  0.00000000E+00  0.00000000E+00  0.00000000E+00
  0.00000000E+00  0.00000000E+00  0.00000000E+00
