Au  O Pd                                
   1.00000000000000     
    11.0025815152626798    0.0000000000000000    0.0000000000000000
     5.5012907576313399    9.5285150994265617    0.0000000000000000
     0.0000000000000000    0.0000000000000000   26.1917850942952910
   Au   O    Pd
    24     8    24
Selective dynamics
Direct
  0.9108402865306918  0.9182813701522945  0.4734483234706375   T   T   T
  0.0833333333333357  0.8333333333333357  0.3817991009012260   F   F   F
  0.9138542204710934  0.1675709169017517  0.4754113802957739   T   T   T
  0.0117716998546081  0.0001317453640183  0.5691871086385706   T   T   T
  0.5833333333333357  0.3333333333333357  0.3817991009012260   F   F   F
  0.9120101525689647  0.4179458939134921  0.4784015960888878   T   T   T
  0.0350570322577533  0.2229924964600225  0.6037747401349554   T   T   T
  0.4980624715510434  0.0037429693394644  0.5625355488283292   T   T   T
  0.8333333333333357  0.5833333333333357  0.3817991009012260   F   F   F
 -0.0000985289488742  0.4935323567158555  0.5677075219045846   T   T   T
  0.5833333333333357  0.8333333333333357  0.3817991009012260   F   F   F
  0.1679692856685325  0.6646814681414569  0.4739193589055710   T   T   T
  0.4561492930559424  0.7777912569206967  0.6111660249805099   T   T   T
  0.6614796787580208  0.4197850348627502  0.4810295552549058   T   T   T
  0.8333333333333357  0.3333333333333357  0.3817991009012260   F   F   F
  0.1676273233749365  0.1670210109073156  0.4721006333718757   T   T   T
  0.7565507683925601  0.7422699124182424  0.5659820314320948   T   T   T
  0.4196762992589311  0.6652343333684387  0.4765726601108702   T   T   T
  0.3333333333333357  0.3333333333333357  0.3817991009012260   F   F   F
  0.1670045207018089  0.4171107705349573  0.4723269047353200   T   T   T
  0.2432793083260656  0.2432691839700279  0.5622094850129702   T   T   T
  0.4220551059875838  0.9147663219835699  0.4734385420117204   T   T   T
  0.1691640240495133  0.9152408438922572  0.4736474798026999   T   T   T
  0.7582025173542062  0.2487070575760586  0.5701830046358743   T   T   T
  0.3208877109088981  0.3421819498526032  0.6112962054003475   T   T   T
  0.2508084030007637  0.6208458623455628  0.6223335528620952   T   T   T
  0.8322613369731956  0.3427807632710282  0.6256932358689307   T   T   T
  0.5892874554249715  0.8526938871898896  0.6217954182416958   T   T   T
  0.5700227328583403  0.3421659488547108  0.6241137490325951   T   T   T
  0.8605780969139482  0.8309373167066904  0.6139005475993006   T   T   T
  0.5948208858795440  0.0959136205101659  0.6113647702190318   T   T   T
  0.6088728341363197  0.5796092055175847  0.6326815801278105   T   T   T
  0.4239751238371544  0.1668744848482422  0.4751730865082049   T   T   T
  0.5833333333333357  0.0833333333333357  0.3817991009012260   F   F   F
  0.2542688722253751  0.7515478584454311  0.5679130361885648   T   T   T
  0.3333333333333357  0.8333333333333357  0.3817991009012260   F   F   F
  0.2409430143862026  0.5063350941008745  0.5631100892281905   T   T   T
  0.3333333333333357  0.0833333333333357  0.3817991009012260   F   F   F
  0.2589021082379440 -0.0071171147086316  0.5636370553694064   T   T   T
  0.5833333333333357  0.5833333333333357  0.3817991009012260   F   F   F
  0.0089488833019901  0.7506284419047139  0.5619122391915180   T   T   T
  0.9132104722713213  0.6667512804455170  0.4740887338927013   T   T   T
  0.0833333333333357  0.5833333333333357  0.3817991009012260   F   F   F
  0.0833333333333357  0.3333333333333357  0.3817991009012260   F   F   F
  0.4981438760518059  0.2669842340606191  0.5681615268325699   T   T   T
  0.0833333333333357  0.0833333333333357  0.3817991009012260   F   F   F
  0.6658991181086860  0.1680919728119455  0.4788428524850409   T   T   T
  0.4525562545099397  0.5445832490267564  0.6262320885227898   T   T   T
  0.6681099136434029  0.9168110879289763  0.4714261855562970   T   T   T
  0.8333333333333357  0.8333333333333357  0.3817991009012260   F   F   F
  0.7524024971666980  0.5038525576609406  0.5749738585979574   T   T   T
  0.6664392785394256  0.6662142775682391  0.4806799743242646   T   T   T
  0.7651919864240575  0.0009566068735171  0.5708995254003875   T   T   T
  0.8333333333333357  0.0833333333333357  0.3817991009012260   F   F   F
  0.4184725807441934  0.4163576532194003  0.4754357730995443   T   T   T
  0.3333333333333357  0.5833333333333357  0.3817991009012260   F   F   F
 
  0.00000000E+00  0.00000000E+00  0.00000000E+00
  0.00000000E+00  0.00000000E+00  0.00000000E+00
  0.00000000E+00  0.00000000E+00  0.00000000E+00
  0.00000000E+00  0.00000000E+00  0.00000000E+00
  0.00000000E+00  0.00000000E+00  0.00000000E+00
  0.00000000E+00  0.00000000E+00  0.00000000E+00
  0.00000000E+00  0.00000000E+00  0.00000000E+00
  0.00000000E+00  0.00000000E+00  0.00000000E+00
  0.00000000E+00  0.00000000E+00  0.00000000E+00
  0.00000000E+00  0.00000000E+00  0.00000000E+00
  0.00000000E+00  0.00000000E+00  0.00000000E+00
  0.00000000E+00  0.00000000E+00  0.00000000E+00
  0.00000000E+00  0.00000000E+00  0.00000000E+00
  0.00000000E+00  0.00000000E+00  0.00000000E+00
  0.00000000E+00  0.00000000E+00  0.00000000E+00
  0.00000000E+00  0.00000000E+00  0.00000000E+00
  0.00000000E+00  0.00000000E+00  0.00000000E+00
  0.00000000E+00  0.00000000E+00  0.00000000E+00
  0.00000000E+00  0.00000000E+00  0.00000000E+00
  0.00000000E+00  0.00000000E+00  0.00000000E+00
  0.00000000E+00  0.00000000E+00  0.00000000E+00
  0.00000000E+00  0.00000000E+00  0.00000000E+00
  0.00000000E+00  0.00000000E+00  0.00000000E+00
  0.00000000E+00  0.00000000E+00  0.00000000E+00
  0.00000000E+00  0.00000000E+00  0.00000000E+00
  0.00000000E+00  0.00000000E+00  0.00000000E+00
  0.00000000E+00  0.00000000E+00  0.00000000E+00
  0.00000000E+00  0.00000000E+00  0.00000000E+00
  0.00000000E+00  0.00000000E+00  0.00000000E+00
  0.00000000E+00  0.00000000E+00  0.00000000E+00
  0.00000000E+00  0.00000000E+00  0.00000000E+00
  0.00000000E+00  0.00000000E+00  0.00000000E+00
  0.00000000E+00  0.00000000E+00  0.00000000E+00
  0.00000000E+00  0.00000000E+00  0.00000000E+00
  0.00000000E+00  0.00000000E+00  0.00000000E+00
  0.00000000E+00  0.00000000E+00  0.00000000E+00
  0.00000000E+00  0.00000000E+00  0.00000000E+00
  0.00000000E+00  0.00000000E+00  0.00000000E+00
  0.00000000E+00  0.00000000E+00  0.00000000E+00
  0.00000000E+00  0.00000000E+00  0.00000000E+00
  0.00000000E+00  0.00000000E+00  0.00000000E+00
  0.00000000E+00  0.00000000E+00  0.00000000E+00
  0.00000000E+00  0.00000000E+00  0.00000000E+00
  0.00000000E+00  0.00000000E+00  0.00000000E+00
  0.00000000E+00  0.00000000E+00  0.00000000E+00
  0.00000000E+00  0.00000000E+00  0.00000000E+00
  0.00000000E+00  0.00000000E+00  0.00000000E+00
  0.00000000E+00  0.00000000E+00  0.00000000E+00
  0.00000000E+00  0.00000000E+00  0.00000000E+00
  0.00000000E+00  0.00000000E+00  0.00000000E+00
  0.00000000E+00  0.00000000E+00  0.00000000E+00
  0.00000000E+00  0.00000000E+00  0.00000000E+00
  0.00000000E+00  0.00000000E+00  0.00000000E+00
  0.00000000E+00  0.00000000E+00  0.00000000E+00
  0.00000000E+00  0.00000000E+00  0.00000000E+00
  0.00000000E+00  0.00000000E+00  0.00000000E+00
