Au Pd                                   
   1.00000000000000     
    11.0025815152626798    0.0000000000000000    0.0000000000000000
     5.5012907576313399    9.5285150994265617    0.0000000000000000
     0.0000000000000000    0.0000000000000000   24.4917850942952882
   Au   Pd
    24    24
Selective dynamics
Direct
  0.0833333333333357  0.0833333333333357  0.4083001692812189   F   F   F
  0.7477207154041838  0.2478155747751628  0.6123017283053295   T   T   T
  0.0833333333333357  0.8333333333333357  0.4083001692812189   F   F   F
 -0.0002234318065214  0.5023795812751247  0.6140565826979085   T   T   T
  0.4202658893313364  0.6645370596956459  0.5124218471644457   T   T   T
  0.8333333333333357  0.5833333333333357  0.4083001692812189   F   F   F
  0.3333333333333357  0.0833333333333357  0.4083001692812189   F   F   F
  0.0833333333333357  0.3333333333333357  0.4083001692812189   F   F   F
  0.9136867910759496  0.1682950415151595  0.5126425452101874   T   T   T
  0.7485563971363526  0.5008496216974376  0.6102707770764497   T   T   T
  0.3333333333333357  0.3333333333333357  0.4083001692812189   F   F   F
  0.1694472364547924  0.1664014492681206  0.5132677419799949   T   T   T
  0.9136491635534268  0.6696877807954195  0.5079121334618217   T   T   T
  0.5833333333333357  0.5833333333333357  0.4083001692812189   F   F   F
  0.1684716761525898  0.4162400904138343  0.5109872027733893   T   T   T
  0.2537364133694259  0.2479342829085299  0.6148143670837661   T   T   T
  0.3333333333333357  0.5833333333333357  0.4083001692812189   F   F   F
  0.1667251208247390  0.6662358471371155  0.5103780419706716   T   T   T
  0.3333333333333357  0.8333333333333357  0.4083001692812189   F   F   F
  0.1673537708105489  0.9165879937441398  0.5127879200741626   T   T   T
  0.8333333333333357  0.0833333333333357  0.4083001692812189   F   F   F
  0.4985655722144257  0.7532504132500403  0.6120866328879832   T   T   T
  0.5833333333333357  0.3333333333333357  0.4083001692812189   F   F   F
  0.8333333333333357  0.3333333333333357  0.4083001692812189   F   F   F
  0.6647429535994752  0.9182179581408576  0.5046275174003982   T   T   T
  0.2516169630134241  0.5004571727879799  0.6079379974017666   T   T   T
  0.2502485934916271 -0.0005522189693281  0.6087955172797409   T   T   T
 -0.0012472332093433  0.7522977227272751  0.6061529776578448   T   T   T
 -0.0002401028883059 -0.0021156501347456  0.6080715066170069   T   T   T
  0.0833333333333357  0.5833333333333357  0.4083001692812189   F   F   F
  0.0004191282183278  0.2489880548260579  0.6093055760922643   T   T   T
  0.9148659553033034  0.4183750723159997  0.5115086349281516   T   T   T
  0.5833333333333357  0.0833333333333357  0.4083001692812189   F   F   F
  0.9125652931274405  0.9190067027121730  0.5081152414383679   T   T   T
  0.4201614793648437  0.1649796936282590  0.5078787325938411   T   T   T
  0.4977248130499722  0.4986536488680220  0.6077276333489233   T   T   T
  0.4202645460432939  0.4131662706337005  0.5093448788142972   T   T   T
  0.2485042551668969  0.7491546942916768  0.6092050985843018   T   T   T
  0.6667225086423560  0.4162236182650274  0.5107890505097009   T   T   T
  0.5833333333333357  0.8333333333333357  0.4083001692812189   F   F   F
  0.4214406014620058  0.9155763882573885  0.5084880745069662   T   T   T
  0.8333333333333357  0.8333333333333357  0.4083001692812189   F   F   F
  0.6646475012311556  0.1662273774369218  0.5077598404290177   T   T   T
  0.6663215205942901  0.6679621154379326  0.5086744337079548   T   T   T
  0.7486725249098722 -0.0014129448997225  0.6029916390552011   T   T   T
  0.4993627465832739  0.2503483874076781  0.6044434604999450   T   T   T
  0.5021868936004896  0.0005464823941186  0.6029323444116347   T   T   T
  0.7490625954692349  0.7533340398878544  0.6042354328797445   T   T   T
 
  0.00000000E+00  0.00000000E+00  0.00000000E+00
  0.00000000E+00  0.00000000E+00  0.00000000E+00
  0.00000000E+00  0.00000000E+00  0.00000000E+00
  0.00000000E+00  0.00000000E+00  0.00000000E+00
  0.00000000E+00  0.00000000E+00  0.00000000E+00
  0.00000000E+00  0.00000000E+00  0.00000000E+00
  0.00000000E+00  0.00000000E+00  0.00000000E+00
  0.00000000E+00  0.00000000E+00  0.00000000E+00
  0.00000000E+00  0.00000000E+00  0.00000000E+00
  0.00000000E+00  0.00000000E+00  0.00000000E+00
  0.00000000E+00  0.00000000E+00  0.00000000E+00
  0.00000000E+00  0.00000000E+00  0.00000000E+00
  0.00000000E+00  0.00000000E+00  0.00000000E+00
  0.00000000E+00  0.00000000E+00  0.00000000E+00
  0.00000000E+00  0.00000000E+00  0.00000000E+00
  0.00000000E+00  0.00000000E+00  0.00000000E+00
  0.00000000E+00  0.00000000E+00  0.00000000E+00
  0.00000000E+00  0.00000000E+00  0.00000000E+00
  0.00000000E+00  0.00000000E+00  0.00000000E+00
  0.00000000E+00  0.00000000E+00  0.00000000E+00
  0.00000000E+00  0.00000000E+00  0.00000000E+00
  0.00000000E+00  0.00000000E+00  0.00000000E+00
  0.00000000E+00  0.00000000E+00  0.00000000E+00
  0.00000000E+00  0.00000000E+00  0.00000000E+00
  0.00000000E+00  0.00000000E+00  0.00000000E+00
  0.00000000E+00  0.00000000E+00  0.00000000E+00
  0.00000000E+00  0.00000000E+00  0.00000000E+00
  0.00000000E+00  0.00000000E+00  0.00000000E+00
  0.00000000E+00  0.00000000E+00  0.00000000E+00
  0.00000000E+00  0.00000000E+00  0.00000000E+00
  0.00000000E+00  0.00000000E+00  0.00000000E+00
  0.00000000E+00  0.00000000E+00  0.00000000E+00
  0.00000000E+00  0.00000000E+00  0.00000000E+00
  0.00000000E+00  0.00000000E+00  0.00000000E+00
  0.00000000E+00  0.00000000E+00  0.00000000E+00
  0.00000000E+00  0.00000000E+00  0.00000000E+00
  0.00000000E+00  0.00000000E+00  0.00000000E+00
  0.00000000E+00  0.00000000E+00  0.00000000E+00
  0.00000000E+00  0.00000000E+00  0.00000000E+00
  0.00000000E+00  0.00000000E+00  0.00000000E+00
  0.00000000E+00  0.00000000E+00  0.00000000E+00
  0.00000000E+00  0.00000000E+00  0.00000000E+00
  0.00000000E+00  0.00000000E+00  0.00000000E+00
  0.00000000E+00  0.00000000E+00  0.00000000E+00
  0.00000000E+00  0.00000000E+00  0.00000000E+00
  0.00000000E+00  0.00000000E+00  0.00000000E+00
  0.00000000E+00  0.00000000E+00  0.00000000E+00
  0.00000000E+00  0.00000000E+00  0.00000000E+00
