Au Pd                                   
   1.00000000000000     
    11.0025815152626798    0.0000000000000000    0.0000000000000000
     5.5012907576313399    9.5285150994265617    0.0000000000000000
     0.0000000000000000    0.0000000000000000   24.4917850942952882
   Au   Pd
    24    24
Direct
  0.2485959381939496  0.7511359376475337  0.6025871723144237
  0.4137635208705023  0.4184962899427166  0.5010218395662451
  0.5038468690500123  0.7500273104359793  0.6006231566952343
  0.5836742354137218  0.0834634968608257  0.3943572123321767
  0.8356936791347427  0.0854690706859227  0.3951391049036059
  0.6662174304504453  0.1656205213012508  0.4987216429797952
  0.3332480474932589  0.8310417870317083  0.4008586770460812
  0.2485917452057244  0.4992004178876958  0.6034660835809438
  0.2525090986346562  0.2491838464736203  0.6005063504111876
  0.6653296186674459  0.4192242462441545  0.5017412987677342
  0.5018307091432881  0.4988352080979336  0.6072151826548529
  0.2516426250232501 -0.0005360387104394  0.6024411604808650
  0.1680883849471845  0.1647665404671785  0.4997298020002466
  0.3332126773286322  0.3341971415741893  0.3974940774314222
 -0.0039537403659976  0.7518995235201307  0.6045889640034471
  0.8333335009802260  0.8333504400152670  0.3934437684902336
  0.9163318268149065  0.4171641947621010  0.4998682579001190
  0.3324145975824861  0.0819821394637145  0.3965546689072874
  0.0846120315986256  0.5834205935199748  0.3982720154587924
  0.9161378824185737  0.6675034416232412  0.4988783076283351
 -0.0014756090604870  0.2514495353092312  0.6056115916737616
  0.8307394360600072  0.5814058953511200  0.3940311901272698
  0.7505623875123427  0.2474972155185245  0.6048969145374392
  0.9186028952822434  0.9165468960094063  0.4995882247094177
  0.8333525073871937  0.3328038278192278  0.4032827693712074
  0.6644403739816491  0.6695178695364026  0.4993129367480789
  0.7511084328619395  0.5007462870748661  0.5985216209523783
  0.4185289708616687  0.9154030861291755  0.4988849174118789
  0.5836794410332048  0.8311066771764944  0.4020096885013588
  0.7480460476688566 -0.0001649491363463  0.5952983900350587
  0.4146287084543086  0.6702410726623317  0.5020295374927866
  0.0822119946790014  0.0839341358116462  0.4039314190123736
  0.5008621073379600  0.2484082786439484  0.5964151661747846
  0.5839529896140849  0.3363627252989458  0.4027449746478532
  0.5036495559504525 -0.0003101671364545  0.5926344353593299
  0.4167117723234482  0.1646022425285665  0.4970362200341358
  0.6653159831274488  0.9164231000843083  0.4966229828891811
  0.1688817247336431  0.9155055780251136  0.5011585220714216
  0.1666575041110914  0.6673273795834859  0.5021694139878878
  0.3336594765567559  0.5837437620774389  0.4055011157432499
  0.1673125277864397  0.4163748804416050  0.4995110958436169
  0.0844480627104012  0.8334297849776587  0.4041915739098986
 -0.0019753287409386  0.5009599325199933  0.5969098525801503
  0.0818204614975884  0.3324770586577252  0.4020314410448717
 -0.0014679446666966  0.0007692969911047  0.5974847195077928
  0.9176342153803918  0.1657252611851093  0.5013200999416489
  0.5830083201961840  0.5821025207018986  0.4045995101526384
  0.7499823067741826  0.7501647073127721  0.5947609319855011
 
  0.00000000E+00  0.00000000E+00  0.00000000E+00
  0.00000000E+00  0.00000000E+00  0.00000000E+00
  0.00000000E+00  0.00000000E+00  0.00000000E+00
  0.00000000E+00  0.00000000E+00  0.00000000E+00
  0.00000000E+00  0.00000000E+00  0.00000000E+00
  0.00000000E+00  0.00000000E+00  0.00000000E+00
  0.00000000E+00  0.00000000E+00  0.00000000E+00
  0.00000000E+00  0.00000000E+00  0.00000000E+00
  0.00000000E+00  0.00000000E+00  0.00000000E+00
  0.00000000E+00  0.00000000E+00  0.00000000E+00
  0.00000000E+00  0.00000000E+00  0.00000000E+00
  0.00000000E+00  0.00000000E+00  0.00000000E+00
  0.00000000E+00  0.00000000E+00  0.00000000E+00
  0.00000000E+00  0.00000000E+00  0.00000000E+00
  0.00000000E+00  0.00000000E+00  0.00000000E+00
  0.00000000E+00  0.00000000E+00  0.00000000E+00
  0.00000000E+00  0.00000000E+00  0.00000000E+00
  0.00000000E+00  0.00000000E+00  0.00000000E+00
  0.00000000E+00  0.00000000E+00  0.00000000E+00
  0.00000000E+00  0.00000000E+00  0.00000000E+00
  0.00000000E+00  0.00000000E+00  0.00000000E+00
  0.00000000E+00  0.00000000E+00  0.00000000E+00
  0.00000000E+00  0.00000000E+00  0.00000000E+00
  0.00000000E+00  0.00000000E+00  0.00000000E+00
  0.00000000E+00  0.00000000E+00  0.00000000E+00
  0.00000000E+00  0.00000000E+00  0.00000000E+00
  0.00000000E+00  0.00000000E+00  0.00000000E+00
  0.00000000E+00  0.00000000E+00  0.00000000E+00
  0.00000000E+00  0.00000000E+00  0.00000000E+00
  0.00000000E+00  0.00000000E+00  0.00000000E+00
  0.00000000E+00  0.00000000E+00  0.00000000E+00
  0.00000000E+00  0.00000000E+00  0.00000000E+00
  0.00000000E+00  0.00000000E+00  0.00000000E+00
  0.00000000E+00  0.00000000E+00  0.00000000E+00
  0.00000000E+00  0.00000000E+00  0.00000000E+00
  0.00000000E+00  0.00000000E+00  0.00000000E+00
  0.00000000E+00  0.00000000E+00  0.00000000E+00
  0.00000000E+00  0.00000000E+00  0.00000000E+00
  0.00000000E+00  0.00000000E+00  0.00000000E+00
  0.00000000E+00  0.00000000E+00  0.00000000E+00
  0.00000000E+00  0.00000000E+00  0.00000000E+00
  0.00000000E+00  0.00000000E+00  0.00000000E+00
  0.00000000E+00  0.00000000E+00  0.00000000E+00
  0.00000000E+00  0.00000000E+00  0.00000000E+00
  0.00000000E+00  0.00000000E+00  0.00000000E+00
  0.00000000E+00  0.00000000E+00  0.00000000E+00
  0.00000000E+00  0.00000000E+00  0.00000000E+00
  0.00000000E+00  0.00000000E+00  0.00000000E+00
