Au  O Pd                                
   1.00000000000000     
    11.0025815152626798    0.0000000000000000    0.0000000000000000
     5.5012907576313399    9.5285150994265617    0.0000000000000000
     0.0000000000000000    0.0000000000000000   26.1917850942952910
   Au   O    Pd
    24     8    24
Selective dynamics
Direct
  0.0833333333333357  0.0833333333333357  0.3817991009012260   F   F   F
  0.2596804656665145  0.4833999614451736  0.5784467957146543   T   T   T
  0.0833333333333357  0.8333333333333357  0.3817991009012260   F   F   F
  0.9199055249374457  0.1643962266379904  0.4739624140943626   T   T   T
 -0.0279025779044185  0.0307067343323890  0.6083765176213065   T   T   T
  0.6710072971037579  0.9136151481260708  0.4778891273781616   T   T   T
  0.9187448025447839  0.4185128424741103  0.4748508825552581   T   T   T
  0.6680619253538281  0.6685270218600453  0.4771139444531107   T   T   T
  0.6644832104512990  0.4181045702118484  0.4771831522176591   T   T   T
  0.0833333333333357  0.5833333333333357  0.3817991009012260   F   F   F
  0.7829701702521800 -0.0249527436530081  0.5665163367203551   T   T   T
  0.9218204399417345  0.9147258534527302  0.4756952451959375   T   T   T
  0.5833333333333357  0.8333333333333357  0.3817991009012260   F   F   F
  0.5833333333333357  0.5833333333333357  0.3817991009012260   F   F   F
  0.5833333333333357  0.3333333333333357  0.3817991009012260   F   F   F
  0.3333333333333357  0.0833333333333357  0.3817991009012260   F   F   F
  0.2632477833190313 -0.0008941784017554  0.5689286270306917   T   T   T
  0.4196009247419071  0.1656353620161515  0.4766605108605277   T   T   T
  0.3333333333333357  0.3333333333333357  0.3817991009012260   F   F   F
  0.1668441202113730  0.4191470462507212  0.4780030896370348   T   T   T
  0.5833333333333357  0.0833333333333357  0.3817991009012260   F   F   F
  0.3333333333333357  0.8333333333333357  0.3817991009012260   F   F   F
  0.3333333333333357  0.5833333333333357  0.3817991009012260   F   F   F
  0.1670970933402814  0.6683289415350386  0.4856857724425436   T   T   T
  0.1186899910761370  0.8321032973634559  0.6331864429366790   T   T   T
  0.0807038844653638  0.5820977669817616  0.6241792003274033   T   T   T
  0.3473879001970845  0.5860743355126318  0.6164680759961726   T   T   T
  0.0956267516961801  0.1227956394265273  0.6196643494760055   T   T   T
  0.7976617360808343  0.8062042334058037  0.6621237034590781   T   T   T
  0.8502874422469002  0.5508914311716284  0.6182443211479886   T   T   T
  0.5845917972595106  0.0878703276413616  0.6143549493262451   T   T   T
  0.5861316787005229  0.5872885547374401  0.6107586098608189   T   T   T
  0.1694241410548799  0.9163937414941580  0.4816513053864007   T   T   T
  0.2523457491887942  0.7583752398030840  0.5729172885565932   T   T   T
  0.7265468042299001  0.7562470678587304  0.6041452685857176   T   T   T
  0.2558194671544140  0.2463958949664337  0.5636694197837619   T   T   T
  0.5132972650664948 -0.0065686842810029  0.5692995288462187   T   T   T
  0.1693594585656968  0.1647085172586883  0.4727409230286685   T   T   T
  0.4166188789910822  0.4178510062142411  0.4812803547464283   T   T   T
  0.5106695074974853  0.2463999046218747  0.5667681242793592   T   T   T
  0.8333333333333357  0.8333333333333357  0.3817991009012260   F   F   F
 -0.0329270565000444  0.7912409608259792  0.6412253036929604   T   T   T
  0.7622462350775070  0.2404013272309778  0.5632762292052048   T   T   T
  0.4135790274755890  0.6690929922451858  0.4783221314253839   T   T   T
  0.0022705747130119  0.5104986778490154  0.5701111842509213   T   T   T
  0.5035348200081160  0.7546064561510583  0.5655705279715706   T   T   T
  0.0833333333333357  0.3333333333333357  0.3817991009012260   F   F   F
  0.8333333333333357  0.0833333333333357  0.3817991009012260   F   F   F
  0.6689705121234912  0.1654480918183417  0.4745609323755821   T   T   T
  0.9184623625261873  0.6682740426638756  0.4739777050935868   T   T   T
  0.7599508739431025  0.4886969758474554  0.5683536690524781   T   T   T
  0.8333333333333357  0.3333333333333357  0.3817991009012260   F   F   F
  0.0059878734791019  0.2573228205912603  0.5623946492223447   T   T   T
  0.4166816556315840  0.9167680915598996  0.4794123063929639   T   T   T
  0.5109624864001779  0.4894701270363310  0.5694142633837543   T   T   T
  0.8333333333333357  0.5833333333333357  0.3817991009012260   F   F   F
 
  0.00000000E+00  0.00000000E+00  0.00000000E+00
  0.00000000E+00  0.00000000E+00  0.00000000E+00
  0.00000000E+00  0.00000000E+00  0.00000000E+00
  0.00000000E+00  0.00000000E+00  0.00000000E+00
  0.00000000E+00  0.00000000E+00  0.00000000E+00
  0.00000000E+00  0.00000000E+00  0.00000000E+00
  0.00000000E+00  0.00000000E+00  0.00000000E+00
  0.00000000E+00  0.00000000E+00  0.00000000E+00
  0.00000000E+00  0.00000000E+00  0.00000000E+00
  0.00000000E+00  0.00000000E+00  0.00000000E+00
  0.00000000E+00  0.00000000E+00  0.00000000E+00
  0.00000000E+00  0.00000000E+00  0.00000000E+00
  0.00000000E+00  0.00000000E+00  0.00000000E+00
  0.00000000E+00  0.00000000E+00  0.00000000E+00
  0.00000000E+00  0.00000000E+00  0.00000000E+00
  0.00000000E+00  0.00000000E+00  0.00000000E+00
  0.00000000E+00  0.00000000E+00  0.00000000E+00
  0.00000000E+00  0.00000000E+00  0.00000000E+00
  0.00000000E+00  0.00000000E+00  0.00000000E+00
  0.00000000E+00  0.00000000E+00  0.00000000E+00
  0.00000000E+00  0.00000000E+00  0.00000000E+00
  0.00000000E+00  0.00000000E+00  0.00000000E+00
  0.00000000E+00  0.00000000E+00  0.00000000E+00
  0.00000000E+00  0.00000000E+00  0.00000000E+00
  0.00000000E+00  0.00000000E+00  0.00000000E+00
  0.00000000E+00  0.00000000E+00  0.00000000E+00
  0.00000000E+00  0.00000000E+00  0.00000000E+00
  0.00000000E+00  0.00000000E+00  0.00000000E+00
  0.00000000E+00  0.00000000E+00  0.00000000E+00
  0.00000000E+00  0.00000000E+00  0.00000000E+00
  0.00000000E+00  0.00000000E+00  0.00000000E+00
  0.00000000E+00  0.00000000E+00  0.00000000E+00
  0.00000000E+00  0.00000000E+00  0.00000000E+00
  0.00000000E+00  0.00000000E+00  0.00000000E+00
  0.00000000E+00  0.00000000E+00  0.00000000E+00
  0.00000000E+00  0.00000000E+00  0.00000000E+00
  0.00000000E+00  0.00000000E+00  0.00000000E+00
  0.00000000E+00  0.00000000E+00  0.00000000E+00
  0.00000000E+00  0.00000000E+00  0.00000000E+00
  0.00000000E+00  0.00000000E+00  0.00000000E+00
  0.00000000E+00  0.00000000E+00  0.00000000E+00
  0.00000000E+00  0.00000000E+00  0.00000000E+00
  0.00000000E+00  0.00000000E+00  0.00000000E+00
  0.00000000E+00  0.00000000E+00  0.00000000E+00
  0.00000000E+00  0.00000000E+00  0.00000000E+00
  0.00000000E+00  0.00000000E+00  0.00000000E+00
  0.00000000E+00  0.00000000E+00  0.00000000E+00
  0.00000000E+00  0.00000000E+00  0.00000000E+00
  0.00000000E+00  0.00000000E+00  0.00000000E+00
  0.00000000E+00  0.00000000E+00  0.00000000E+00
  0.00000000E+00  0.00000000E+00  0.00000000E+00
  0.00000000E+00  0.00000000E+00  0.00000000E+00
  0.00000000E+00  0.00000000E+00  0.00000000E+00
  0.00000000E+00  0.00000000E+00  0.00000000E+00
  0.00000000E+00  0.00000000E+00  0.00000000E+00
  0.00000000E+00  0.00000000E+00  0.00000000E+00
