Au Pd                                   
   1.00000000000000     
    11.0025815152626798    0.0000000000000000    0.0000000000000000
     5.5012907576313399    9.5285150994265617    0.0000000000000000
     0.0000000000000000    0.0000000000000000   24.4917850942952882
   Au   Pd
    24    24
Selective dynamics
Direct
  0.0833333333333357  0.0833333333333357  0.4083001692812189   F   F   F
  0.0009309866707216  0.7509500508944711  0.6088567080705999   T   T   T
  0.0833333333333357  0.3333333333333357  0.4083001692812189   F   F   F
  0.3333333333333357  0.0833333333333357  0.4083001692812189   F   F   F
  0.9176257890836258  0.6669372624725981  0.5073518697880368   T   T   T
  0.0833333333333357  0.5833333333333357  0.4083001692812189   F   F   F
  0.1674062044000105  0.1654804797844088  0.5115843918210240   T   T   T
  0.2471580552129247 -0.0027345129734057  0.6134908368292312   T   T   T
 -0.0051375158098049  0.2513929205228910  0.6124297874628870   T   T   T
  0.7507385559260723  0.7463691350873179  0.6134504566539423   T   T   T
  0.2476697946944058  0.2520512621421794  0.6122625788215330   T   T   T
  0.2492750741845209  0.5025640278687264  0.6091947689025395   T   T   T
  0.9160287766419781  0.4167756165801357  0.5077862765224954   T   T   T
  0.5833333333333357  0.0833333333333357  0.4083001692812189   F   F   F
  0.4993689309859880 -0.0004255483047795  0.6123934822585915   T   T   T
  0.4136527290194383  0.4180487780463885  0.5055855111695173   T   T   T
  0.5008437956088387  0.2517221796975256  0.6118499248988191   T   T   T
  0.5833333333333357  0.5833333333333357  0.4083001692812189   F   F   F
  0.4164284061289864  0.9140694968101529  0.5077335077620844   T   T   T
  0.4995224282622646  0.7460117070572344  0.6101499536190504   T   T   T
  0.6698018114025741  0.1651818372681225  0.5074009925147623   T   T   T
  0.7523555661819555  0.0005615903652105  0.6117526437504052   T   T   T
  0.6665923031274873  0.4171442623391453  0.5068737858620181   T   T   T
  0.6676589101966610  0.9151551476199519  0.5076949351791017   T   T   T
  0.5833333333333357  0.3333333333333357  0.4083001692812189   F   F   F
  0.0833333333333357  0.8333333333333357  0.4083001692812189   F   F   F
  0.4162685940168004  0.1672914883856649  0.5095735507592204   T   T   T
  0.9191861370814426  0.9160983232737032  0.5058913397102106   T   T   T
  0.1680973045265915  0.4163626502406537  0.5087095486393342   T   T   T
  0.3333333333333357  0.8333333333333357  0.4083001692812189   F   F   F
  0.1665784446733234  0.6691847432047467  0.5062157212404669   T   T   T
  0.3333333333333357  0.5833333333333357  0.4083001692812189   F   F   F
 -0.0013959377188045  0.4999858439551187  0.6055165665070685   T   T   T
  0.1658430670030193  0.9152769216256402  0.5058617737220639   T   T   T
  0.5001771243832560  0.4999683866692792  0.6030827860217588   T   T   T
  0.7483831103686598  0.4995320844022380  0.6050132444671159   T   T   T
  0.9189200370588314  0.1642695333480279  0.5066086258418322   T   T   T
  0.8333333333333357  0.3333333333333357  0.4083001692812189   F   F   F
  0.8333333333333357  0.8333333333333357  0.4083001692812189   F   F   F
  0.6653964086137998  0.6673658713640681  0.5075799720039145   T   T   T
  0.8333333333333357  0.5833333333333357  0.4083001692812189   F   F   F
  0.7493128817734195  0.2509521766935979  0.6045311774621234   T   T   T
  0.3333333333333357  0.3333333333333357  0.4083001692812189   F   F   F
 -0.0003218360117345  0.0003545229570159  0.6016025561831212   T   T   T
  0.8333333333333357  0.0833333333333357  0.4083001692812189   F   F   F
  0.5833333333333357  0.8333333333333357  0.4083001692812189   F   F   F
  0.4139538853318108  0.6684568139532727  0.5062368995493833   T   T   T
  0.2496218934475374  0.7501356897630659  0.6021139125237746   T   T   T
 
  0.00000000E+00  0.00000000E+00  0.00000000E+00
  0.00000000E+00  0.00000000E+00  0.00000000E+00
  0.00000000E+00  0.00000000E+00  0.00000000E+00
  0.00000000E+00  0.00000000E+00  0.00000000E+00
  0.00000000E+00  0.00000000E+00  0.00000000E+00
  0.00000000E+00  0.00000000E+00  0.00000000E+00
  0.00000000E+00  0.00000000E+00  0.00000000E+00
  0.00000000E+00  0.00000000E+00  0.00000000E+00
  0.00000000E+00  0.00000000E+00  0.00000000E+00
  0.00000000E+00  0.00000000E+00  0.00000000E+00
  0.00000000E+00  0.00000000E+00  0.00000000E+00
  0.00000000E+00  0.00000000E+00  0.00000000E+00
  0.00000000E+00  0.00000000E+00  0.00000000E+00
  0.00000000E+00  0.00000000E+00  0.00000000E+00
  0.00000000E+00  0.00000000E+00  0.00000000E+00
  0.00000000E+00  0.00000000E+00  0.00000000E+00
  0.00000000E+00  0.00000000E+00  0.00000000E+00
  0.00000000E+00  0.00000000E+00  0.00000000E+00
  0.00000000E+00  0.00000000E+00  0.00000000E+00
  0.00000000E+00  0.00000000E+00  0.00000000E+00
  0.00000000E+00  0.00000000E+00  0.00000000E+00
  0.00000000E+00  0.00000000E+00  0.00000000E+00
  0.00000000E+00  0.00000000E+00  0.00000000E+00
  0.00000000E+00  0.00000000E+00  0.00000000E+00
  0.00000000E+00  0.00000000E+00  0.00000000E+00
  0.00000000E+00  0.00000000E+00  0.00000000E+00
  0.00000000E+00  0.00000000E+00  0.00000000E+00
  0.00000000E+00  0.00000000E+00  0.00000000E+00
  0.00000000E+00  0.00000000E+00  0.00000000E+00
  0.00000000E+00  0.00000000E+00  0.00000000E+00
  0.00000000E+00  0.00000000E+00  0.00000000E+00
  0.00000000E+00  0.00000000E+00  0.00000000E+00
  0.00000000E+00  0.00000000E+00  0.00000000E+00
  0.00000000E+00  0.00000000E+00  0.00000000E+00
  0.00000000E+00  0.00000000E+00  0.00000000E+00
  0.00000000E+00  0.00000000E+00  0.00000000E+00
  0.00000000E+00  0.00000000E+00  0.00000000E+00
  0.00000000E+00  0.00000000E+00  0.00000000E+00
  0.00000000E+00  0.00000000E+00  0.00000000E+00
  0.00000000E+00  0.00000000E+00  0.00000000E+00
  0.00000000E+00  0.00000000E+00  0.00000000E+00
  0.00000000E+00  0.00000000E+00  0.00000000E+00
  0.00000000E+00  0.00000000E+00  0.00000000E+00
  0.00000000E+00  0.00000000E+00  0.00000000E+00
  0.00000000E+00  0.00000000E+00  0.00000000E+00
  0.00000000E+00  0.00000000E+00  0.00000000E+00
  0.00000000E+00  0.00000000E+00  0.00000000E+00
  0.00000000E+00  0.00000000E+00  0.00000000E+00
