Au Pd                                   
   1.00000000000000     
    11.0025815152626798    0.0000000000000000    0.0000000000000000
     5.5012907576313399    9.5285150994265617    0.0000000000000000
     0.0000000000000000    0.0000000000000000   24.4917850942952882
   Au   Pd
    24    24
Selective dynamics
Direct
  0.0833333333333357  0.0833333333333357  0.4083001692812189   F   F   F
  0.3333333333333357  0.0833333333333357  0.4083001692812189   F   F   F
  0.2467812336699612  0.2503380207435219  0.6111397740365125   T   T   T
  0.0833333333333357  0.5833333333333357  0.4083001692812189   F   F   F
  0.0833333333333357  0.3333333333333357  0.4083001692812189   F   F   F
  0.1685612999951733  0.4141367715530832  0.5094136495807057   T   T   T
  0.2467474896368404  0.7525769689933051  0.6122020500523255   T   T   T
  0.3333333333333357  0.5833333333333357  0.4083001692812189   F   F   F
  0.4128226812446109  0.9169415039750030  0.5096832154789537   T   T   T
  0.8333333333333357  0.8333333333333357  0.4083001692812189   F   F   F
  0.6697444209032702  0.6626678575879481  0.5093824957759708   T   T   T
  0.7544618952570148  0.2476449313078077  0.6100893922886181   T   T   T
  0.0833333333333357  0.8333333333333357  0.4083001692812189   F   F   F
  0.6682698482824294  0.1659145104574981  0.5074548992043943   T   T   T
  0.5019106181901233  0.7489173146324211  0.6132660049825572   T   T   T
  0.5833333333333357  0.8333333333333357  0.4083001692812189   F   F   F
  0.1674735341570485  0.6674957611696910  0.5111921368887054   T   T   T
  0.4999348151561494  0.4999046628216212  0.6094557838521129   T   T   T
  0.5833333333333357  0.5833333333333357  0.4083001692812189   F   F   F
  0.4995531155151480  0.2497674749739646  0.6105811813591335   T   T   T
  0.5833333333333357  0.3333333333333357  0.4083001692812189   F   F   F
  0.5015572792324383 -0.0010726509044495  0.6135226073467579   T   T   T
  0.6676650831475398  0.9167131547774824  0.5096741363515821   T   T   T
  0.8333333333333357  0.3333333333333357  0.4083001692812189   F   F   F
 -0.0018547619524562  0.5012389666014262  0.6048532498268472   T   T   T
  0.3333333333333357  0.8333333333333357  0.4083001692812189   F   F   F
  0.4168976473290372  0.6657695450462667  0.5097977447486580   T   T   T
  0.9181546436099286  0.9168618860373552  0.5079637231651322   T   T   T
  0.4163664639345213  0.1671201764110226  0.5082655905791159   T   T   T
  0.4178915289235642  0.4158143279049769  0.5088906755188186   T   T   T
  0.1656385729150558  0.9174832266047570  0.5084531363504302   T   T   T
  0.1660074580690468  0.1660802062700054  0.5092002630380508   T   T   T
  0.9177056471090493  0.6651606927847437  0.5080256690149773   T   T   T
 -0.0026689634466172  0.7508259050211210  0.6055129927265925   T   T   T
  0.2469737305498489  0.5009730531543389  0.6072940256610981   T   T   T
  0.6675742371566670  0.4155512635611375  0.5097739944415898   T   T   T
 -0.0000012435346499  0.2499170132125354  0.6039732086067321   T   T   T
  0.7540368719102591 -0.0029864232239771  0.6060099502369511   T   T   T
  0.9176007435372635  0.4142017079282109  0.5077875307189252   T   T   T
  0.3333333333333357  0.3333333333333357  0.4083001692812189   F   F   F
  0.8333333333333357  0.5833333333333357  0.4083001692812189   F   F   F
  0.0007730473010076 -0.0006613022039075  0.6039949212177375   T   T   T
  0.7543967653962727  0.4982925557007974  0.6056734453496311   T   T   T
  0.9181503329058468  0.1661817191034780  0.5079258678595984   T   T   T
  0.5833333333333357  0.0833333333333357  0.4083001692812189   F   F   F
  0.2472994985186872  0.0010507662209703  0.6062837776650247   T   T   T
  0.8333333333333357  0.0833333333333357  0.4083001692812189   F   F   F
  0.7525932823253945  0.7485669888355724  0.6060915490755504   T   T   T
 
  0.00000000E+00  0.00000000E+00  0.00000000E+00
  0.00000000E+00  0.00000000E+00  0.00000000E+00
  0.00000000E+00  0.00000000E+00  0.00000000E+00
  0.00000000E+00  0.00000000E+00  0.00000000E+00
  0.00000000E+00  0.00000000E+00  0.00000000E+00
  0.00000000E+00  0.00000000E+00  0.00000000E+00
  0.00000000E+00  0.00000000E+00  0.00000000E+00
  0.00000000E+00  0.00000000E+00  0.00000000E+00
  0.00000000E+00  0.00000000E+00  0.00000000E+00
  0.00000000E+00  0.00000000E+00  0.00000000E+00
  0.00000000E+00  0.00000000E+00  0.00000000E+00
  0.00000000E+00  0.00000000E+00  0.00000000E+00
  0.00000000E+00  0.00000000E+00  0.00000000E+00
  0.00000000E+00  0.00000000E+00  0.00000000E+00
  0.00000000E+00  0.00000000E+00  0.00000000E+00
  0.00000000E+00  0.00000000E+00  0.00000000E+00
  0.00000000E+00  0.00000000E+00  0.00000000E+00
  0.00000000E+00  0.00000000E+00  0.00000000E+00
  0.00000000E+00  0.00000000E+00  0.00000000E+00
  0.00000000E+00  0.00000000E+00  0.00000000E+00
  0.00000000E+00  0.00000000E+00  0.00000000E+00
  0.00000000E+00  0.00000000E+00  0.00000000E+00
  0.00000000E+00  0.00000000E+00  0.00000000E+00
  0.00000000E+00  0.00000000E+00  0.00000000E+00
  0.00000000E+00  0.00000000E+00  0.00000000E+00
  0.00000000E+00  0.00000000E+00  0.00000000E+00
  0.00000000E+00  0.00000000E+00  0.00000000E+00
  0.00000000E+00  0.00000000E+00  0.00000000E+00
  0.00000000E+00  0.00000000E+00  0.00000000E+00
  0.00000000E+00  0.00000000E+00  0.00000000E+00
  0.00000000E+00  0.00000000E+00  0.00000000E+00
  0.00000000E+00  0.00000000E+00  0.00000000E+00
  0.00000000E+00  0.00000000E+00  0.00000000E+00
  0.00000000E+00  0.00000000E+00  0.00000000E+00
  0.00000000E+00  0.00000000E+00  0.00000000E+00
  0.00000000E+00  0.00000000E+00  0.00000000E+00
  0.00000000E+00  0.00000000E+00  0.00000000E+00
  0.00000000E+00  0.00000000E+00  0.00000000E+00
  0.00000000E+00  0.00000000E+00  0.00000000E+00
  0.00000000E+00  0.00000000E+00  0.00000000E+00
  0.00000000E+00  0.00000000E+00  0.00000000E+00
  0.00000000E+00  0.00000000E+00  0.00000000E+00
  0.00000000E+00  0.00000000E+00  0.00000000E+00
  0.00000000E+00  0.00000000E+00  0.00000000E+00
  0.00000000E+00  0.00000000E+00  0.00000000E+00
  0.00000000E+00  0.00000000E+00  0.00000000E+00
  0.00000000E+00  0.00000000E+00  0.00000000E+00
  0.00000000E+00  0.00000000E+00  0.00000000E+00
