Au Pd                                   
   1.00000000000000     
    11.0025815152626798    0.0000000000000000    0.0000000000000000
     5.5012907576313399    9.5285150994265617    0.0000000000000000
     0.0000000000000000    0.0000000000000000   24.4917850942952882
   Au   Pd
    24    24
Direct
  0.7513980954220508  0.7459887276909687  0.6070884967760036
  0.4172462409640882  0.4171492096758340  0.5005212865055974
  0.5846597892151834  0.8359159084284677  0.3939753665720871
  0.4177228290954828  0.1654167381955372  0.5007604942318736
  0.6662440716678741  0.9166640189981752  0.5012497343367160
  0.3289384259961453  0.8366135730477724  0.3971252734166679
  0.2493363638474073  0.5012354721757354  0.6036409228898798
  0.8303179842371093  0.0848988447817658  0.4017418842153440
  0.3286051807884611  0.5859662046003825  0.3963087544289254
  0.1654414537066864  0.4170280187291069  0.4999800888896899
  0.4999796111401105  0.2495042598956579  0.6069786504509085
  0.2546707671819691 -0.0024056069740587  0.5999487652711702
  0.1653613840458783  0.1650017124591863  0.4993334790542034
  0.3310836364105213  0.3354923615498632  0.3939326080990707
  0.7516107070102501 -0.0024588038853578  0.6074660267542284
  0.0048297136208543 -0.0024124492009484  0.6037478410871638
  0.6647227357629970  0.6660787280921319  0.4981622759901244
  0.3301404970472344  0.0865394363219578  0.3945927030158131
  0.7520058971343562  0.2512859106549390  0.6038901561950881
  0.5827659407748422  0.5838347512570208  0.3922964637066063
  0.6678107128491108  0.4145643687731077  0.4999017113559739
  0.8338142206342340  0.3348282114172597  0.3979350467264525
  0.9200465152065661  0.9163700001902444  0.5026078145300377
  0.9174579792263943  0.6648113358444810  0.5015123076514452
  0.8334337567498786  0.5854360649172937  0.4018095988870830
  0.6679886026246440  0.1655248064814022  0.5038134225279794
  0.4160350040187266  0.9156916737267149  0.4972294396759134
  0.7520542201458223  0.4987596808065444  0.5963425976401080
  0.5005023338977028  0.5023671400297004  0.5968991941935827
  0.8324010588747904  0.8344673952444641  0.4043347260620518
  0.5014180595224490  0.7468760549902915  0.5938647849033457
  0.0808549686724512  0.0852848795501907  0.4033959378375419
  0.5814486266541860  0.3342215527323848  0.4032792773290760
  0.5020012521382264 -0.0031470376952134  0.5979264317715430
  0.5814544480472466  0.0864256678067910  0.4038659590778855
  0.1691593319491254  0.9143951080835538  0.4998025187832785
  0.1688560230171781  0.6660943435330984  0.5000635125489478
  0.2509628377821931  0.2488955954369886  0.5978896850851809
  0.0020723637899232  0.7473281089018845  0.5990938726573579
  0.0799557279696570  0.8352779052355492  0.4041787049510244
  0.0010279470066183  0.4972385724341582  0.5985685375100686
  0.0795283149483723  0.5861939066470281  0.4028632500203190
  0.0009641562325352  0.2521052561891639  0.5968525485998271
  0.9161017003465102  0.4148878473352170  0.4991302522435052
  0.0803961778901705  0.3367249412840599  0.4018381529503166
  0.9178124905248030  0.1654693057962082  0.5012520527670189
  0.4143122878098504  0.6680804411250273  0.4963354167965551
  0.2530475564011323  0.7474898566882695  0.5946719730294195
 
  0.00000000E+00  0.00000000E+00  0.00000000E+00
  0.00000000E+00  0.00000000E+00  0.00000000E+00
  0.00000000E+00  0.00000000E+00  0.00000000E+00
  0.00000000E+00  0.00000000E+00  0.00000000E+00
  0.00000000E+00  0.00000000E+00  0.00000000E+00
  0.00000000E+00  0.00000000E+00  0.00000000E+00
  0.00000000E+00  0.00000000E+00  0.00000000E+00
  0.00000000E+00  0.00000000E+00  0.00000000E+00
  0.00000000E+00  0.00000000E+00  0.00000000E+00
  0.00000000E+00  0.00000000E+00  0.00000000E+00
  0.00000000E+00  0.00000000E+00  0.00000000E+00
  0.00000000E+00  0.00000000E+00  0.00000000E+00
  0.00000000E+00  0.00000000E+00  0.00000000E+00
  0.00000000E+00  0.00000000E+00  0.00000000E+00
  0.00000000E+00  0.00000000E+00  0.00000000E+00
  0.00000000E+00  0.00000000E+00  0.00000000E+00
  0.00000000E+00  0.00000000E+00  0.00000000E+00
  0.00000000E+00  0.00000000E+00  0.00000000E+00
  0.00000000E+00  0.00000000E+00  0.00000000E+00
  0.00000000E+00  0.00000000E+00  0.00000000E+00
  0.00000000E+00  0.00000000E+00  0.00000000E+00
  0.00000000E+00  0.00000000E+00  0.00000000E+00
  0.00000000E+00  0.00000000E+00  0.00000000E+00
  0.00000000E+00  0.00000000E+00  0.00000000E+00
  0.00000000E+00  0.00000000E+00  0.00000000E+00
  0.00000000E+00  0.00000000E+00  0.00000000E+00
  0.00000000E+00  0.00000000E+00  0.00000000E+00
  0.00000000E+00  0.00000000E+00  0.00000000E+00
  0.00000000E+00  0.00000000E+00  0.00000000E+00
  0.00000000E+00  0.00000000E+00  0.00000000E+00
  0.00000000E+00  0.00000000E+00  0.00000000E+00
  0.00000000E+00  0.00000000E+00  0.00000000E+00
  0.00000000E+00  0.00000000E+00  0.00000000E+00
  0.00000000E+00  0.00000000E+00  0.00000000E+00
  0.00000000E+00  0.00000000E+00  0.00000000E+00
  0.00000000E+00  0.00000000E+00  0.00000000E+00
  0.00000000E+00  0.00000000E+00  0.00000000E+00
  0.00000000E+00  0.00000000E+00  0.00000000E+00
  0.00000000E+00  0.00000000E+00  0.00000000E+00
  0.00000000E+00  0.00000000E+00  0.00000000E+00
  0.00000000E+00  0.00000000E+00  0.00000000E+00
  0.00000000E+00  0.00000000E+00  0.00000000E+00
  0.00000000E+00  0.00000000E+00  0.00000000E+00
  0.00000000E+00  0.00000000E+00  0.00000000E+00
  0.00000000E+00  0.00000000E+00  0.00000000E+00
  0.00000000E+00  0.00000000E+00  0.00000000E+00
  0.00000000E+00  0.00000000E+00  0.00000000E+00
  0.00000000E+00  0.00000000E+00  0.00000000E+00
