Au Pd                                   
   1.00000000000000     
    11.0025815152626798    0.0000000000000000    0.0000000000000000
     5.5012907576313399    9.5285150994265617    0.0000000000000000
     0.0000000000000000    0.0000000000000000   24.4917850942952882
   Au   Pd
    24    24
Direct
  0.0834208045645744  0.0805853220520274  0.3923409613593243
  0.6665952087253565  0.6689901381614349  0.4989479594517723
  0.6650055042535089  0.4166742664081365  0.5002385957764898
  0.8332215290841676  0.3335373313044685  0.3930250557381673
  0.5852441271944996  0.8331360960760746  0.3964845236989363
  0.5033465400392809  0.4986114686144232  0.6058539939342608
  0.4156328906728868  0.6682041940982393  0.5008566551908386
  0.5835192981298131  0.5834801852943289  0.3928675459188364
  0.5044180937447506  0.2467396857725773  0.6041620880410211
  0.5034246193912665 -0.0038761716163858  0.6003875888483452
  0.4162904234723389  0.1685992429821253  0.5002142310245348
  0.5863350709465067  0.0850802218925983  0.3983614602462695
  0.1658514652536556  0.9179026828623015  0.5003637222054682
  0.2494381164306313  0.4987029284702696  0.6042342483230270
  0.1648895329717884  0.6653346232308003  0.5018142181431865
  0.3321954381657097  0.5824405548430400  0.3986819488595611
  0.2483607493646867  0.7510360478568973  0.6091471948872120
  0.9124337680727945  0.9167653323673475  0.5004521901332306
  0.2495764112979180  0.0001196691375242  0.6038835285764127
  0.1654980712141633  0.1693665754792830  0.4988887189396817
  0.3339119162003744  0.0831047832379862  0.3953282063093872
  0.9137245029837513  0.1687516135147420  0.4986313755389571
 -0.0012558029183210  0.4987922732054691  0.6013671009141102
  0.0836347909592148  0.3371601564696682  0.3969397824164981
  0.6640530675744690  0.1668747576008066  0.5008152057898860
  0.7530025838707836 -0.0022926204382043  0.5971872019668760
 -0.0009234280660014 -0.0001829622224694  0.5981080756465464
  0.2499004535950151  0.2487378451547380  0.5974154482564378
  0.8343621143408364  0.0824473846410105  0.4020150929505750
  0.8348899027485692  0.5848417790932547  0.4026744095718499
  0.7507410057804464  0.4989057202923470  0.5962316523120318
  0.8365614832555635  0.8321540326109950  0.4033071377004971
  0.7539215329950514  0.2477515082134445  0.5976878765511974
  0.5020316881633492  0.7482115299053536  0.5973882668950417
 -0.0006565679866266  0.2491736242108252  0.5958987003804954
  0.9164464611328421  0.4188215149838091  0.4989781660863097
  0.1637134740096221  0.4190382203694967  0.5010942477777057
  0.0820449578652150  0.5843070402289604  0.4046871255656517
  0.9155134484590528  0.6653239913118060  0.5011441810509779
  0.4155694072228909  0.4168118476139056  0.5029347393036538
  0.5839720742203562  0.3336878545776922  0.4045408656886225
  0.0825122830099223  0.8329772702017854  0.4030636432598017
 -0.0021418274199310  0.7510194975768917  0.5990621682909281
  0.6657508769760606  0.9172081692787876  0.4988092958155079
  0.3329469458729034  0.8327253553854469  0.4024596541025199
  0.3339614626736347  0.3348436745888707  0.4050811235028107
  0.4159342004883949  0.9187099596442146  0.4996903179828643
  0.7511793290022633  0.7486637834608543  0.5962525090756815
 
  0.00000000E+00  0.00000000E+00  0.00000000E+00
  0.00000000E+00  0.00000000E+00  0.00000000E+00
  0.00000000E+00  0.00000000E+00  0.00000000E+00
  0.00000000E+00  0.00000000E+00  0.00000000E+00
  0.00000000E+00  0.00000000E+00  0.00000000E+00
  0.00000000E+00  0.00000000E+00  0.00000000E+00
  0.00000000E+00  0.00000000E+00  0.00000000E+00
  0.00000000E+00  0.00000000E+00  0.00000000E+00
  0.00000000E+00  0.00000000E+00  0.00000000E+00
  0.00000000E+00  0.00000000E+00  0.00000000E+00
  0.00000000E+00  0.00000000E+00  0.00000000E+00
  0.00000000E+00  0.00000000E+00  0.00000000E+00
  0.00000000E+00  0.00000000E+00  0.00000000E+00
  0.00000000E+00  0.00000000E+00  0.00000000E+00
  0.00000000E+00  0.00000000E+00  0.00000000E+00
  0.00000000E+00  0.00000000E+00  0.00000000E+00
  0.00000000E+00  0.00000000E+00  0.00000000E+00
  0.00000000E+00  0.00000000E+00  0.00000000E+00
  0.00000000E+00  0.00000000E+00  0.00000000E+00
  0.00000000E+00  0.00000000E+00  0.00000000E+00
  0.00000000E+00  0.00000000E+00  0.00000000E+00
  0.00000000E+00  0.00000000E+00  0.00000000E+00
  0.00000000E+00  0.00000000E+00  0.00000000E+00
  0.00000000E+00  0.00000000E+00  0.00000000E+00
  0.00000000E+00  0.00000000E+00  0.00000000E+00
  0.00000000E+00  0.00000000E+00  0.00000000E+00
  0.00000000E+00  0.00000000E+00  0.00000000E+00
  0.00000000E+00  0.00000000E+00  0.00000000E+00
  0.00000000E+00  0.00000000E+00  0.00000000E+00
  0.00000000E+00  0.00000000E+00  0.00000000E+00
  0.00000000E+00  0.00000000E+00  0.00000000E+00
  0.00000000E+00  0.00000000E+00  0.00000000E+00
  0.00000000E+00  0.00000000E+00  0.00000000E+00
  0.00000000E+00  0.00000000E+00  0.00000000E+00
  0.00000000E+00  0.00000000E+00  0.00000000E+00
  0.00000000E+00  0.00000000E+00  0.00000000E+00
  0.00000000E+00  0.00000000E+00  0.00000000E+00
  0.00000000E+00  0.00000000E+00  0.00000000E+00
  0.00000000E+00  0.00000000E+00  0.00000000E+00
  0.00000000E+00  0.00000000E+00  0.00000000E+00
  0.00000000E+00  0.00000000E+00  0.00000000E+00
  0.00000000E+00  0.00000000E+00  0.00000000E+00
  0.00000000E+00  0.00000000E+00  0.00000000E+00
  0.00000000E+00  0.00000000E+00  0.00000000E+00
  0.00000000E+00  0.00000000E+00  0.00000000E+00
  0.00000000E+00  0.00000000E+00  0.00000000E+00
  0.00000000E+00  0.00000000E+00  0.00000000E+00
  0.00000000E+00  0.00000000E+00  0.00000000E+00
