Au Pd                                   
   1.00000000000000     
    11.0025815152626798    0.0000000000000000    0.0000000000000000
     5.5012907576313399    9.5285150994265617    0.0000000000000000
     0.0000000000000000    0.0000000000000000   24.4917850942952882
   Au   Pd
    24    24
Direct
  0.0802974159868658  0.0864569970521163  0.3958971332268134
  0.7481481027692669  0.5009286920498858  0.6083732094030250
  0.6657824858948840  0.6684831373582223  0.5007780906769798
  0.6668204603940936  0.4155836299451592  0.4997220038086966
  0.6693557415970810  0.1642852079261212  0.4992841721742819
  0.5001250384947484  0.4988250379795725  0.6011613693719899
  0.5851882534038212  0.5842654428937928  0.3958534815013509
  0.5838173824670355  0.3303101763567880  0.3947918090128597
  0.4183443451655086  0.1656060495669905  0.4997023988676977
  0.1678758413785823  0.9153116638768515  0.4998223009643143
  0.3347216312431077  0.8361509615078451  0.3966203635136716
  0.2516733373631937  0.4963449051014260  0.6021838857166761
  0.1667742601961167  0.6650594915820224  0.5007227497655979
  0.3333635941098531  0.5822995243660819  0.3982910869164597
  0.2508678331048022  0.7510831201854679  0.6040355875013955
  0.7478540777715963  0.7543146328149024  0.6041679805706003
  0.0797745881517497  0.5844373061995036  0.3981187962753618
  0.9180809821980022  0.4167144781387356  0.5000974718738691
  0.0008184706006583  0.5001226233128732  0.6020555437092083
  0.0783964893783488  0.8362483337928583  0.3961346336543453
  0.0830022076721298  0.3344670916365244  0.3960188118409037
 -0.0023320777984005  0.0001177105660070  0.6019203442417481
  0.1682641537774271  0.1658775503859846  0.4993804844143633
  0.0010074076149211  0.2481420219810209  0.6041997298027545
  0.7488437457796667  0.2493852241817660  0.5974334848926378
  0.4182599756969086  0.9149324554569147  0.4987210045413081
  0.8321266608196868  0.3342165184081959  0.4028838019230834
  0.7488488967433650  0.0008152723268161  0.5963886024060581
  0.9186435488016862  0.1645464811422920  0.5007372055783634
  0.8315685208592708  0.0840416467308741  0.4028605515301572
  0.4991019103923404  0.7517826437519464  0.5963417489517138
  0.8295130940292602  0.8359717823912391  0.4051807056787426
  0.8313479564676753  0.5863735684753116  0.4036431938143065
  0.3336701428799701  0.3319912818199586  0.4029237363845027
  0.2521188168606564 -0.0007578844176806  0.5966224787078672
  0.5022438894205674  0.2459494406377134  0.5971448138568859
  0.4167074435079902  0.4163445304160834  0.4998057490572053
  0.9165331425866919  0.6681694324667800  0.5010843309410331
  0.4977945105551208  0.0007177971629871  0.5965329608343268
  0.5829307524462116  0.0821549840865758  0.4026006087374125
  0.6690819947441400  0.9143244112505765  0.5013807570388592
  0.9172240506851048  0.9157576531029262  0.4998142682068297
 -0.0013868670361596  0.7512654591429178  0.5975951086945457
  0.3357257696377578  0.0840154669246579  0.4014982846400580
  0.2521969444418379  0.2476574289837441  0.5970509973215828
  0.1673208166125864  0.4171873255484568  0.4998307140408192
  0.5845750343727875  0.8355170367239055  0.4035291501971472
  0.4169872257594834  0.6662042567082881  0.4990623032195878
 
  0.00000000E+00  0.00000000E+00  0.00000000E+00
  0.00000000E+00  0.00000000E+00  0.00000000E+00
  0.00000000E+00  0.00000000E+00  0.00000000E+00
  0.00000000E+00  0.00000000E+00  0.00000000E+00
  0.00000000E+00  0.00000000E+00  0.00000000E+00
  0.00000000E+00  0.00000000E+00  0.00000000E+00
  0.00000000E+00  0.00000000E+00  0.00000000E+00
  0.00000000E+00  0.00000000E+00  0.00000000E+00
  0.00000000E+00  0.00000000E+00  0.00000000E+00
  0.00000000E+00  0.00000000E+00  0.00000000E+00
  0.00000000E+00  0.00000000E+00  0.00000000E+00
  0.00000000E+00  0.00000000E+00  0.00000000E+00
  0.00000000E+00  0.00000000E+00  0.00000000E+00
  0.00000000E+00  0.00000000E+00  0.00000000E+00
  0.00000000E+00  0.00000000E+00  0.00000000E+00
  0.00000000E+00  0.00000000E+00  0.00000000E+00
  0.00000000E+00  0.00000000E+00  0.00000000E+00
  0.00000000E+00  0.00000000E+00  0.00000000E+00
  0.00000000E+00  0.00000000E+00  0.00000000E+00
  0.00000000E+00  0.00000000E+00  0.00000000E+00
  0.00000000E+00  0.00000000E+00  0.00000000E+00
  0.00000000E+00  0.00000000E+00  0.00000000E+00
  0.00000000E+00  0.00000000E+00  0.00000000E+00
  0.00000000E+00  0.00000000E+00  0.00000000E+00
  0.00000000E+00  0.00000000E+00  0.00000000E+00
  0.00000000E+00  0.00000000E+00  0.00000000E+00
  0.00000000E+00  0.00000000E+00  0.00000000E+00
  0.00000000E+00  0.00000000E+00  0.00000000E+00
  0.00000000E+00  0.00000000E+00  0.00000000E+00
  0.00000000E+00  0.00000000E+00  0.00000000E+00
  0.00000000E+00  0.00000000E+00  0.00000000E+00
  0.00000000E+00  0.00000000E+00  0.00000000E+00
  0.00000000E+00  0.00000000E+00  0.00000000E+00
  0.00000000E+00  0.00000000E+00  0.00000000E+00
  0.00000000E+00  0.00000000E+00  0.00000000E+00
  0.00000000E+00  0.00000000E+00  0.00000000E+00
  0.00000000E+00  0.00000000E+00  0.00000000E+00
  0.00000000E+00  0.00000000E+00  0.00000000E+00
  0.00000000E+00  0.00000000E+00  0.00000000E+00
  0.00000000E+00  0.00000000E+00  0.00000000E+00
  0.00000000E+00  0.00000000E+00  0.00000000E+00
  0.00000000E+00  0.00000000E+00  0.00000000E+00
  0.00000000E+00  0.00000000E+00  0.00000000E+00
  0.00000000E+00  0.00000000E+00  0.00000000E+00
  0.00000000E+00  0.00000000E+00  0.00000000E+00
  0.00000000E+00  0.00000000E+00  0.00000000E+00
  0.00000000E+00  0.00000000E+00  0.00000000E+00
  0.00000000E+00  0.00000000E+00  0.00000000E+00
