Au Pd                                   
   1.00000000000000     
    11.0025815152626798    0.0000000000000000    0.0000000000000000
     5.5012907576313399    9.5285150994265617    0.0000000000000000
     0.0000000000000000    0.0000000000000000   24.4917850942952882
   Au   Pd
    24    24
Direct
  0.0813807141108448  0.0841676728752513  0.3952325008843975
  0.8365962411120962  0.5823442761500647  0.3978210983304208
  0.6673215135261141  0.4167264360884804  0.4996555382758173
  0.8354568308285759  0.3312045874708028  0.3959544785462161
  0.7490324269677782  0.0032183268796988  0.6048974875213623
  0.4178890974701329  0.9153359348939478  0.5005063165395666
  0.5853272913343216  0.8331150322248707  0.3947568564070145
  0.4995758459420665  0.4999549903772866  0.6010108795845003
  0.5832546399139638  0.5832744829991240  0.3967535185037014
  0.5826110716713614  0.3315304296627602  0.3979049555713806
  0.5847696791112510  0.0832968221729457  0.3984616513264307
  0.6665488632603521  0.9188010256562275  0.5021415234210731
  0.1654289719269480  0.9160313526201854  0.5009910399755874
  0.3316226371563835  0.8337289841945241  0.3948553557686784
  0.3308873562333533  0.5821645756957973  0.3995818999631341
  0.2509517883413455  0.2508743767594588  0.6052930890049329
  0.7481349920490502  0.7477883041822589  0.6051266588131623
  0.9169478636921843  0.6666459783221496  0.5028367401391948
  0.2497010669094844 -0.0011484514994453  0.6061262594443960
  0.1686836894768535  0.4162116311369500  0.5022935878877917
  0.1648701627406656  0.1680841979775874  0.5008011591230290
  0.3326451060833259  0.0861539903955629  0.3967555436279184
  0.0030548691504886  0.7489925507370486  0.6048082190991403
  0.0787831963009178  0.8330194524309155  0.3989525457277882
  0.6667248418511845  0.1672263074865187  0.5008687167709592
  0.9151798362293293  0.4172960844825023  0.4987503999712944
  0.0844734461727342  0.3338466196865667  0.4032262250286497
 -0.0006239595317216  0.0018264772095080  0.5979538822186380
  0.9158933728409208  0.1671253599420923  0.4990164389641031
  0.8329245574728159  0.0823677430081726  0.4047522262749310
  0.6667996856547096  0.6666024082284268  0.4989905821833763
  0.7521286391506837  0.4985972694239503  0.5955830348431663
  0.8338943845553387  0.8328166163387468  0.4058191836215074
  0.7522646663298789  0.2494650946048414  0.5960668980634891
  0.5002588994505170  0.7487947457591325  0.5960919212004222
  0.3310020258188910  0.3342760842770759  0.4044624235570058
  0.0831652119215457  0.5822074685621391  0.4052603797275551
  0.4166875826145516  0.6657392354341404  0.4993323761861117
 -0.0002734862960163  0.4983455708681983  0.5990721960816630
  0.5002872086809785  0.2498277944615737  0.5962638965872359
  0.4175931922888385  0.4168460000158797  0.5002231547245730
  0.4996801055913379  0.0004487066318724  0.5985899186469467
  0.4176227514319059  0.1678821304973837  0.5002748396148478
  0.9162453543669774  0.9191572587842157  0.5028555583259111
  0.2506400902555773  0.5001286866286108  0.5982344130047711
  0.1677223825330635  0.6670397135971707  0.5011092334096666
 -0.0019839639690338  0.2508369090185183  0.5964849916217201
  0.2502172592751331  0.7497827546483089  0.5971982058848202
 
  0.00000000E+00  0.00000000E+00  0.00000000E+00
  0.00000000E+00  0.00000000E+00  0.00000000E+00
  0.00000000E+00  0.00000000E+00  0.00000000E+00
  0.00000000E+00  0.00000000E+00  0.00000000E+00
  0.00000000E+00  0.00000000E+00  0.00000000E+00
  0.00000000E+00  0.00000000E+00  0.00000000E+00
  0.00000000E+00  0.00000000E+00  0.00000000E+00
  0.00000000E+00  0.00000000E+00  0.00000000E+00
  0.00000000E+00  0.00000000E+00  0.00000000E+00
  0.00000000E+00  0.00000000E+00  0.00000000E+00
  0.00000000E+00  0.00000000E+00  0.00000000E+00
  0.00000000E+00  0.00000000E+00  0.00000000E+00
  0.00000000E+00  0.00000000E+00  0.00000000E+00
  0.00000000E+00  0.00000000E+00  0.00000000E+00
  0.00000000E+00  0.00000000E+00  0.00000000E+00
  0.00000000E+00  0.00000000E+00  0.00000000E+00
  0.00000000E+00  0.00000000E+00  0.00000000E+00
  0.00000000E+00  0.00000000E+00  0.00000000E+00
  0.00000000E+00  0.00000000E+00  0.00000000E+00
  0.00000000E+00  0.00000000E+00  0.00000000E+00
  0.00000000E+00  0.00000000E+00  0.00000000E+00
  0.00000000E+00  0.00000000E+00  0.00000000E+00
  0.00000000E+00  0.00000000E+00  0.00000000E+00
  0.00000000E+00  0.00000000E+00  0.00000000E+00
  0.00000000E+00  0.00000000E+00  0.00000000E+00
  0.00000000E+00  0.00000000E+00  0.00000000E+00
  0.00000000E+00  0.00000000E+00  0.00000000E+00
  0.00000000E+00  0.00000000E+00  0.00000000E+00
  0.00000000E+00  0.00000000E+00  0.00000000E+00
  0.00000000E+00  0.00000000E+00  0.00000000E+00
  0.00000000E+00  0.00000000E+00  0.00000000E+00
  0.00000000E+00  0.00000000E+00  0.00000000E+00
  0.00000000E+00  0.00000000E+00  0.00000000E+00
  0.00000000E+00  0.00000000E+00  0.00000000E+00
  0.00000000E+00  0.00000000E+00  0.00000000E+00
  0.00000000E+00  0.00000000E+00  0.00000000E+00
  0.00000000E+00  0.00000000E+00  0.00000000E+00
  0.00000000E+00  0.00000000E+00  0.00000000E+00
  0.00000000E+00  0.00000000E+00  0.00000000E+00
  0.00000000E+00  0.00000000E+00  0.00000000E+00
  0.00000000E+00  0.00000000E+00  0.00000000E+00
  0.00000000E+00  0.00000000E+00  0.00000000E+00
  0.00000000E+00  0.00000000E+00  0.00000000E+00
  0.00000000E+00  0.00000000E+00  0.00000000E+00
  0.00000000E+00  0.00000000E+00  0.00000000E+00
  0.00000000E+00  0.00000000E+00  0.00000000E+00
  0.00000000E+00  0.00000000E+00  0.00000000E+00
  0.00000000E+00  0.00000000E+00  0.00000000E+00
