Au Pd                                   
   1.00000000000000     
    11.0025815152626798    0.0000000000000000    0.0000000000000000
     5.5012907576313399    9.5285150994265617    0.0000000000000000
     0.0000000000000000    0.0000000000000000   24.4917850942952882
   Au   Pd
    24    24
Direct
  0.4155669031655583  0.6672512231110701  0.4986514239186425
  0.3318260598660829  0.8343946992640461  0.3917794737114876
  0.2504811289698169  0.4995659072918872  0.6065296083658914
  0.1654985022201443  0.6674797815275493  0.4994204615835706
  0.3334990381899280  0.5805498510469496  0.3924548999863705
  0.5816490073540018  0.0859284553497146  0.3979363799858426
  0.4163865800888998  0.9176840346002341  0.4980034818660430
  0.5023006855026867  0.4992294292222442  0.6075873855057059
  0.6682116704727514  0.4141692087820111  0.5016752356527645
  0.1673279003097148  0.1681541919612593  0.4996132543495444
  0.3289495875312923  0.0885781995200324  0.3942441548493125
 -0.0010904087970284  0.7537470830964249  0.6037787278279388
  0.5014918287621215 -0.0006268022463118  0.6002106939182986
  0.0807294302295744  0.8342030621477672  0.3948497824799294
 -0.0004798435622907  0.4993350510133978  0.6056886223181726
  0.9166011559644894  0.6667967083748870  0.5014572781833709
  0.5857214033786411  0.8309674054470497  0.3955662917139215
  0.0009859125855354  0.2470756308628849  0.6046132295540673
  0.6680597121140380  0.6664416958919136  0.5013202647196650
  0.4164769270197863  0.4139293602311349  0.5005707752278092
  0.5034011812591276  0.2474991682519415  0.6022324955487783
  0.9172392597633622  0.1644628192180010  0.4991057008165577
  0.8317747893075370  0.0863043421602056  0.3961938555559524
  0.5003406170213104  0.7498774594405994  0.6062112522579830
  0.0805443877669929  0.0876900203358532  0.4003649370949254
  0.7520149627286453 -0.0001848069197868  0.5940888215906454
  0.7528506219121429  0.2471686705635429  0.5979719043951204
  0.8338317188121065  0.5822324037242076  0.4047390996235884
  0.7506112388039737  0.4991842091079634  0.5999272953245551
  0.8339400214240797  0.8316788443644340  0.4025902686804149
  0.6669247355809977  0.1628927366024814  0.4987294655896639
  0.8320470558600873  0.3370197321908658  0.4037409945025003
  0.2503115636566825  0.7514920862652196  0.5955204263879165
  0.5825299473641806  0.3356162587770521  0.4032420212399889
  0.4181637486500315  0.1660344196805138  0.4994675532866305
  0.6662097875397238  0.9187479719051698  0.4983030113555123
  0.1661348760849183  0.9165969081693895  0.4959681632981260
  0.2508489459106393  0.2483736012750954  0.5975846347518567
  0.1671809211126171  0.4160805662986099  0.5028063912829422
  0.3296098583119217  0.3360690530489728  0.4043198538274763
  0.2501850798304712 -0.0017502716907328  0.5953468730951199
  0.9161781890807082  0.9165681653435371  0.4976784303463063
  0.0817079333519180  0.5820090377502958  0.4040901081988658
  0.9189551095984981  0.4158138164935867  0.5036081698751163
  0.0796893331365540  0.3368748044529646  0.4051957085538269
  0.0020385387486662 -0.0017668925626107  0.5942225455401737
  0.5842278103873435  0.5820878556606853  0.4024925965755143
  0.7503145856290180  0.7504728435957945  0.5983059956855923
 
  0.00000000E+00  0.00000000E+00  0.00000000E+00
  0.00000000E+00  0.00000000E+00  0.00000000E+00
  0.00000000E+00  0.00000000E+00  0.00000000E+00
  0.00000000E+00  0.00000000E+00  0.00000000E+00
  0.00000000E+00  0.00000000E+00  0.00000000E+00
  0.00000000E+00  0.00000000E+00  0.00000000E+00
  0.00000000E+00  0.00000000E+00  0.00000000E+00
  0.00000000E+00  0.00000000E+00  0.00000000E+00
  0.00000000E+00  0.00000000E+00  0.00000000E+00
  0.00000000E+00  0.00000000E+00  0.00000000E+00
  0.00000000E+00  0.00000000E+00  0.00000000E+00
  0.00000000E+00  0.00000000E+00  0.00000000E+00
  0.00000000E+00  0.00000000E+00  0.00000000E+00
  0.00000000E+00  0.00000000E+00  0.00000000E+00
  0.00000000E+00  0.00000000E+00  0.00000000E+00
  0.00000000E+00  0.00000000E+00  0.00000000E+00
  0.00000000E+00  0.00000000E+00  0.00000000E+00
  0.00000000E+00  0.00000000E+00  0.00000000E+00
  0.00000000E+00  0.00000000E+00  0.00000000E+00
  0.00000000E+00  0.00000000E+00  0.00000000E+00
  0.00000000E+00  0.00000000E+00  0.00000000E+00
  0.00000000E+00  0.00000000E+00  0.00000000E+00
  0.00000000E+00  0.00000000E+00  0.00000000E+00
  0.00000000E+00  0.00000000E+00  0.00000000E+00
  0.00000000E+00  0.00000000E+00  0.00000000E+00
  0.00000000E+00  0.00000000E+00  0.00000000E+00
  0.00000000E+00  0.00000000E+00  0.00000000E+00
  0.00000000E+00  0.00000000E+00  0.00000000E+00
  0.00000000E+00  0.00000000E+00  0.00000000E+00
  0.00000000E+00  0.00000000E+00  0.00000000E+00
  0.00000000E+00  0.00000000E+00  0.00000000E+00
  0.00000000E+00  0.00000000E+00  0.00000000E+00
  0.00000000E+00  0.00000000E+00  0.00000000E+00
  0.00000000E+00  0.00000000E+00  0.00000000E+00
  0.00000000E+00  0.00000000E+00  0.00000000E+00
  0.00000000E+00  0.00000000E+00  0.00000000E+00
  0.00000000E+00  0.00000000E+00  0.00000000E+00
  0.00000000E+00  0.00000000E+00  0.00000000E+00
  0.00000000E+00  0.00000000E+00  0.00000000E+00
  0.00000000E+00  0.00000000E+00  0.00000000E+00
  0.00000000E+00  0.00000000E+00  0.00000000E+00
  0.00000000E+00  0.00000000E+00  0.00000000E+00
  0.00000000E+00  0.00000000E+00  0.00000000E+00
  0.00000000E+00  0.00000000E+00  0.00000000E+00
  0.00000000E+00  0.00000000E+00  0.00000000E+00
  0.00000000E+00  0.00000000E+00  0.00000000E+00
  0.00000000E+00  0.00000000E+00  0.00000000E+00
  0.00000000E+00  0.00000000E+00  0.00000000E+00
