Au Pd                                   
   1.00000000000000     
    11.0025815152626798    0.0000000000000000    0.0000000000000000
     5.5012907576313399    9.5285150994265617    0.0000000000000000
     0.0000000000000000    0.0000000000000000   24.4917850942952882
   Au   Pd
    24    24
Direct
  0.2512261955512926  0.7494762053229113  0.6035385653426510
  0.4159388599845785  0.6660063844590225  0.5000453411486009
  0.5023357692607894  0.4988661801555511  0.6053250365819263
  0.5797571462400816  0.8342951229756118  0.3901564419812588
  0.5787896265026480  0.0872865672118115  0.3959557850815783
  0.6663047147401242  0.9193116767021462  0.4976205154403073
  0.4146972286511846  0.9194515097788803  0.4991751088178379
  0.3281401750037600  0.8361986752109470  0.3968658501982201
  0.8331234618184545  0.0843943598760734  0.3982512566293352
  0.3302072653222982  0.5824677411259470  0.3981530634393912
  0.8301440783549631  0.3342299478997817  0.3992767906474127
  0.4164682156535052  0.4151539168991776  0.5013528754362340
  0.2533627145655191 -0.0003414263044852  0.6036000057442488
  0.9202285670952342  0.6649719925208709  0.5003757423979779
 -0.0008274903922748  0.7511892778840472  0.6062733248882489
  0.9192203477228246  0.9173635544721912  0.5008003415444924
  0.8344806061867731  0.8330194779538448  0.3922011033301259
  0.8322888757236135  0.5832371390308427  0.3909972807541493
  0.0023591043196184  0.4993850752392193  0.6056233960721468
  0.0854907195103168  0.3322821601510010  0.3989833674708763
  0.7503976163700672  0.2479754410513569  0.6015065722434848
  0.6678216368540901  0.6644600770186833  0.4979471526779449
  0.0018247578487612  0.2488218081466636  0.6039109067106448
  0.9186836024394375  0.4135560700977678  0.5010678077135142
  0.7505982606846956  0.5010809785716595  0.5978714928436942
  0.6676293997105891  0.4142039966863731  0.5012975726071933
  0.6672918774682464  0.1677654379602917  0.4997078609582545
  0.7489135944331778  0.0003238978913889  0.5961697741170207
  0.5033129616392726  0.7498756373796202  0.5967671402834870
  0.5807735866682715  0.5842186014765622  0.4015543941550593
  0.0826757804172019  0.0838313539527319  0.4068377098435848
  0.5806198238697742  0.3350564643277838  0.4042126809368947
  0.9168424182169383  0.1665362073920161  0.5017602069652145
  0.0001339130621734 -0.0004820721591492  0.5986300331250529
  0.0816894489715853  0.5838751700796970  0.4044533152357134
  0.0820073381528297  0.8332139930790325  0.4046899243141672
  0.3314705462638010  0.0842916093872074  0.4027636987549419
  0.1668495312771927  0.1667292399120894  0.5015598458259380
  0.4994414606796370  0.2480794059006626  0.5968877834061274
  0.3314693866901471  0.3336626418444805  0.4043876059564447
  0.2531353285434763  0.2491701243799579  0.5966471148639180
  0.1673896332165342  0.6662290087126049  0.5019209891468631
  0.2521267746970196  0.4981562421555125  0.5984363926374454
  0.1666735206357428  0.9179145588881591  0.5021486005845257
  0.4161336551242185  0.1676540063498405  0.4993701283841449
  0.5029994917442422  0.0005613477309735  0.5957301203864520
  0.1677200039155780  0.4148909258565164  0.5013710610491343
  0.7496384685899938  0.7501022873641225  0.5958209213261211
 
  0.00000000E+00  0.00000000E+00  0.00000000E+00
  0.00000000E+00  0.00000000E+00  0.00000000E+00
  0.00000000E+00  0.00000000E+00  0.00000000E+00
  0.00000000E+00  0.00000000E+00  0.00000000E+00
  0.00000000E+00  0.00000000E+00  0.00000000E+00
  0.00000000E+00  0.00000000E+00  0.00000000E+00
  0.00000000E+00  0.00000000E+00  0.00000000E+00
  0.00000000E+00  0.00000000E+00  0.00000000E+00
  0.00000000E+00  0.00000000E+00  0.00000000E+00
  0.00000000E+00  0.00000000E+00  0.00000000E+00
  0.00000000E+00  0.00000000E+00  0.00000000E+00
  0.00000000E+00  0.00000000E+00  0.00000000E+00
  0.00000000E+00  0.00000000E+00  0.00000000E+00
  0.00000000E+00  0.00000000E+00  0.00000000E+00
  0.00000000E+00  0.00000000E+00  0.00000000E+00
  0.00000000E+00  0.00000000E+00  0.00000000E+00
  0.00000000E+00  0.00000000E+00  0.00000000E+00
  0.00000000E+00  0.00000000E+00  0.00000000E+00
  0.00000000E+00  0.00000000E+00  0.00000000E+00
  0.00000000E+00  0.00000000E+00  0.00000000E+00
  0.00000000E+00  0.00000000E+00  0.00000000E+00
  0.00000000E+00  0.00000000E+00  0.00000000E+00
  0.00000000E+00  0.00000000E+00  0.00000000E+00
  0.00000000E+00  0.00000000E+00  0.00000000E+00
  0.00000000E+00  0.00000000E+00  0.00000000E+00
  0.00000000E+00  0.00000000E+00  0.00000000E+00
  0.00000000E+00  0.00000000E+00  0.00000000E+00
  0.00000000E+00  0.00000000E+00  0.00000000E+00
  0.00000000E+00  0.00000000E+00  0.00000000E+00
  0.00000000E+00  0.00000000E+00  0.00000000E+00
  0.00000000E+00  0.00000000E+00  0.00000000E+00
  0.00000000E+00  0.00000000E+00  0.00000000E+00
  0.00000000E+00  0.00000000E+00  0.00000000E+00
  0.00000000E+00  0.00000000E+00  0.00000000E+00
  0.00000000E+00  0.00000000E+00  0.00000000E+00
  0.00000000E+00  0.00000000E+00  0.00000000E+00
  0.00000000E+00  0.00000000E+00  0.00000000E+00
  0.00000000E+00  0.00000000E+00  0.00000000E+00
  0.00000000E+00  0.00000000E+00  0.00000000E+00
  0.00000000E+00  0.00000000E+00  0.00000000E+00
  0.00000000E+00  0.00000000E+00  0.00000000E+00
  0.00000000E+00  0.00000000E+00  0.00000000E+00
  0.00000000E+00  0.00000000E+00  0.00000000E+00
  0.00000000E+00  0.00000000E+00  0.00000000E+00
  0.00000000E+00  0.00000000E+00  0.00000000E+00
  0.00000000E+00  0.00000000E+00  0.00000000E+00
  0.00000000E+00  0.00000000E+00  0.00000000E+00
  0.00000000E+00  0.00000000E+00  0.00000000E+00
