Au Pd                                   
   1.00000000000000     
    11.0025815152626798    0.0000000000000000    0.0000000000000000
     5.5012907576313399    9.5285150994265617    0.0000000000000000
     0.0000000000000000    0.0000000000000000   30.0000000000000000
   Au   Pd
    24    24
Direct
  0.0805845534651178  0.0852133011779441  0.3219685518774290
  0.8273870608136260  0.0869252920686599  0.3232800204158264
  0.4990900027939015 -0.0011055830433601  0.4940714660300247
  0.4156348132138818  0.1678566869936728  0.4092741866776884
  0.7519940536125419  0.0002584948804601  0.4946905686485223
  0.6667236527015983  0.9160283198546665  0.4101530542601492
  0.1691300918643820  0.9163279047128752  0.4067576531031780
  0.3362074347731605  0.8314923869558961  0.3235269485386683
  0.2518330175430188  0.4989952405081557  0.4915182148990637
  0.1679381977308660  0.6641905302855425  0.4079534885434795
  0.3356314269742814  0.5826689754909841  0.3252399043511165
  0.3360740695907741  0.3329575024466405  0.3252805109310395
  0.8284069678087728  0.5866835340299151  0.3239421263528866
  0.5019285301041561  0.5003629545264666  0.4923888096352144
  0.0020192752554625  0.2468808403140344  0.4936748060544233
  0.6656359966146100  0.6656149637493242  0.4094388525665617
  0.9162289074502771  0.9156094557292686  0.4077166786931049
  0.0799605404762228  0.8350989940239439  0.3177228018189504
  0.0002127078070903  0.5013398194881944  0.4915227966126012
  0.9144748411526208  0.1682715153320850  0.4086065585754273
  0.0801578631275115  0.5857166936822065  0.3245633887561352
  0.3350752424207725  0.0820561066877137  0.3246030539118559
  0.9172558911040222  0.4164065723271703  0.4092886884591828
  0.0814679883007570  0.3342890604571363  0.3251939810040775
  0.4160535885982553  0.9161275599573793  0.4081465629837161
  0.5007859959677380  0.7499233688307699  0.4880036181497567
  0.6665289121827244  0.1673742645409956  0.4095308412211434
  0.7503687092265570  0.2494632883115741  0.4888695795562146
  0.7504360927978908  0.5003948371353022  0.4891194333456538
  0.8303548203641001  0.3350767975803407  0.3300800632781619
  0.5829158705171866  0.8343437501662291  0.3298528886209111
  0.8304535177817043  0.8356856474125450  0.3287354033216394
  0.6634874747554168  0.4164190684223394  0.4106535829890372
  0.2507674142711657  0.7525337292240772  0.4868996503395925
  0.5835070622172093  0.5821490371093506  0.3306686819091911
  0.5014687109402212  0.2491494763846359  0.4885065324032082
  0.4184253705295864  0.4166746946746663  0.4096662606667277
  0.5836989554987735  0.3349457949918344  0.3319251651298114
  0.5836212493900315  0.0823980536582260  0.3305628227295127
  0.2511144432162726  0.2480891188566713  0.4874259700384307
  0.1676224096570997  0.4160099589472895  0.4082845769028961
  0.2520279554333060 -0.0017442516830169  0.4862892407505852
  0.1666570894226288  0.1668170636456144  0.4074641893105271
  0.0007527477519835  0.7505478917114915  0.4873417474872485
  0.9173135508840046  0.6649010225131834  0.4081132470009687
  0.0021629941860956 -0.0016426495259648  0.4870977691000960
  0.4175151425309643  0.6652514917243373  0.4086825250525911
  0.7509067951796576  0.7489714227305321  0.4891306124320092
 
  0.00000000E+00  0.00000000E+00  0.00000000E+00
  0.00000000E+00  0.00000000E+00  0.00000000E+00
  0.00000000E+00  0.00000000E+00  0.00000000E+00
  0.00000000E+00  0.00000000E+00  0.00000000E+00
  0.00000000E+00  0.00000000E+00  0.00000000E+00
  0.00000000E+00  0.00000000E+00  0.00000000E+00
  0.00000000E+00  0.00000000E+00  0.00000000E+00
  0.00000000E+00  0.00000000E+00  0.00000000E+00
  0.00000000E+00  0.00000000E+00  0.00000000E+00
  0.00000000E+00  0.00000000E+00  0.00000000E+00
  0.00000000E+00  0.00000000E+00  0.00000000E+00
  0.00000000E+00  0.00000000E+00  0.00000000E+00
  0.00000000E+00  0.00000000E+00  0.00000000E+00
  0.00000000E+00  0.00000000E+00  0.00000000E+00
  0.00000000E+00  0.00000000E+00  0.00000000E+00
  0.00000000E+00  0.00000000E+00  0.00000000E+00
  0.00000000E+00  0.00000000E+00  0.00000000E+00
  0.00000000E+00  0.00000000E+00  0.00000000E+00
  0.00000000E+00  0.00000000E+00  0.00000000E+00
  0.00000000E+00  0.00000000E+00  0.00000000E+00
  0.00000000E+00  0.00000000E+00  0.00000000E+00
  0.00000000E+00  0.00000000E+00  0.00000000E+00
  0.00000000E+00  0.00000000E+00  0.00000000E+00
  0.00000000E+00  0.00000000E+00  0.00000000E+00
  0.00000000E+00  0.00000000E+00  0.00000000E+00
  0.00000000E+00  0.00000000E+00  0.00000000E+00
  0.00000000E+00  0.00000000E+00  0.00000000E+00
  0.00000000E+00  0.00000000E+00  0.00000000E+00
  0.00000000E+00  0.00000000E+00  0.00000000E+00
  0.00000000E+00  0.00000000E+00  0.00000000E+00
  0.00000000E+00  0.00000000E+00  0.00000000E+00
  0.00000000E+00  0.00000000E+00  0.00000000E+00
  0.00000000E+00  0.00000000E+00  0.00000000E+00
  0.00000000E+00  0.00000000E+00  0.00000000E+00
  0.00000000E+00  0.00000000E+00  0.00000000E+00
  0.00000000E+00  0.00000000E+00  0.00000000E+00
  0.00000000E+00  0.00000000E+00  0.00000000E+00
  0.00000000E+00  0.00000000E+00  0.00000000E+00
  0.00000000E+00  0.00000000E+00  0.00000000E+00
  0.00000000E+00  0.00000000E+00  0.00000000E+00
  0.00000000E+00  0.00000000E+00  0.00000000E+00
  0.00000000E+00  0.00000000E+00  0.00000000E+00
  0.00000000E+00  0.00000000E+00  0.00000000E+00
  0.00000000E+00  0.00000000E+00  0.00000000E+00
  0.00000000E+00  0.00000000E+00  0.00000000E+00
  0.00000000E+00  0.00000000E+00  0.00000000E+00
  0.00000000E+00  0.00000000E+00  0.00000000E+00
  0.00000000E+00  0.00000000E+00  0.00000000E+00
