Au Pd                                   
   1.00000000000000     
    11.0025815152626798    0.0000000000000000    0.0000000000000000
     5.5012907576313399    9.5285150994265617    0.0000000000000000
     0.0000000000000000    0.0000000000000000   24.4917850942952882
   Au   Pd
    24    24
Direct
  0.2489531763746085  0.7515375158847345  0.6042198450414165
  0.3328681107307559  0.8342681700041584  0.3964445888969800
  0.1691622099992232  0.9165642092997014  0.4991239998643052
  0.5802955272424862  0.0842873064449076  0.3956001339333666
  0.4168826310091233  0.4158141212375993  0.4999799721577571
  0.5004419767475241  0.2462811510741696  0.6030653379919736
  0.5841150315573903  0.5816424818807413  0.3953987242620172
  0.2478366114841917  0.4978536778887833  0.6084395122669819
  0.5001181607773583  0.4987035169560683  0.6041719270782131
  0.8358926553058854  0.0839860084250183  0.3931575027079711
  0.6670683954983377  0.1635480274418737  0.4977317382838862
  0.6663725466481595  0.4177522096700458  0.4988267741683229
  0.6654582771382740  0.6702797349881600  0.4985753027532053
  0.7511275998688254  0.4990402445530074  0.6071164283434241
  0.8353685764837147  0.8301953289347974  0.3981521475062507
  0.4979146029815554  0.7531654048627012  0.6000592602791829
  0.1657237325660436  0.6677743250584274  0.4999461946108198
  0.7484369509462043  0.7528929060041808  0.6018209855970160
  0.1673778439537240  0.4152795384183216  0.5004116740392766
  0.9192235028004955  0.1646342341077973  0.4987862425037831
 -0.0032314054834832  0.0022497617582108  0.6035253083268137
  0.9181193307642582  0.4174128981403027  0.5001184862663779
 -0.0026027769026367  0.7510296727467913  0.6020105319828822
  0.0025158250840463  0.2495580085263042  0.6043770328902522
  0.3331279820514571  0.5822771391839678  0.4027624960286462
  0.0843681923066579  0.3323549798309099  0.4020642735215469
  0.8351041225425785  0.5817776437160728  0.4024329111230392
  0.7493910037525239  0.2501301930865738  0.5967452542738312
  0.8351670965741710  0.3333218648800241  0.4012016171475890
  0.7482783547155387  0.0007910162247804  0.5944772650915051
  0.0847438753291586  0.5815198835461411  0.4030673522953105
  0.9149746416770359  0.6701675711063759  0.4996563335304744
  0.4167212560067980  0.9176602208856811  0.4981681730619781
 -0.0003711787753765  0.4998425552734133  0.5981391951275611
  0.2497784557180689  0.2491247632579843  0.5966768191210975
  0.4168176284156250  0.6677031169130253  0.4987861997634401
  0.0845170361854692  0.8326867658485552  0.4019394695211990
  0.9164789334129986  0.9157974398399938  0.4981627794889539
  0.5828194600212048  0.3333787852864557  0.4005594723075174
  0.4975029381986079  0.0018127008114296  0.5935816230452247
  0.4177186923705133  0.1628755397993810  0.4986729914185276
  0.3320704607255678  0.0846698844502096  0.4030258536938639
  0.6669332458364726  0.9164475157942271  0.4977935035277942
  0.1691879617175826  0.1658471459745074  0.4998256246866161
  0.2500354806358587  0.0013784730766350  0.5960890373321357
  0.3320335355571051  0.3339517560351841  0.4025253683224130
  0.5828548138312561  0.8336316606819388  0.4011297462648643
  0.0843069176170611  0.0851009301897278  0.4014569885523960
 
  0.00000000E+00  0.00000000E+00  0.00000000E+00
  0.00000000E+00  0.00000000E+00  0.00000000E+00
  0.00000000E+00  0.00000000E+00  0.00000000E+00
  0.00000000E+00  0.00000000E+00  0.00000000E+00
  0.00000000E+00  0.00000000E+00  0.00000000E+00
  0.00000000E+00  0.00000000E+00  0.00000000E+00
  0.00000000E+00  0.00000000E+00  0.00000000E+00
  0.00000000E+00  0.00000000E+00  0.00000000E+00
  0.00000000E+00  0.00000000E+00  0.00000000E+00
  0.00000000E+00  0.00000000E+00  0.00000000E+00
  0.00000000E+00  0.00000000E+00  0.00000000E+00
  0.00000000E+00  0.00000000E+00  0.00000000E+00
  0.00000000E+00  0.00000000E+00  0.00000000E+00
  0.00000000E+00  0.00000000E+00  0.00000000E+00
  0.00000000E+00  0.00000000E+00  0.00000000E+00
  0.00000000E+00  0.00000000E+00  0.00000000E+00
  0.00000000E+00  0.00000000E+00  0.00000000E+00
  0.00000000E+00  0.00000000E+00  0.00000000E+00
  0.00000000E+00  0.00000000E+00  0.00000000E+00
  0.00000000E+00  0.00000000E+00  0.00000000E+00
  0.00000000E+00  0.00000000E+00  0.00000000E+00
  0.00000000E+00  0.00000000E+00  0.00000000E+00
  0.00000000E+00  0.00000000E+00  0.00000000E+00
  0.00000000E+00  0.00000000E+00  0.00000000E+00
  0.00000000E+00  0.00000000E+00  0.00000000E+00
  0.00000000E+00  0.00000000E+00  0.00000000E+00
  0.00000000E+00  0.00000000E+00  0.00000000E+00
  0.00000000E+00  0.00000000E+00  0.00000000E+00
  0.00000000E+00  0.00000000E+00  0.00000000E+00
  0.00000000E+00  0.00000000E+00  0.00000000E+00
  0.00000000E+00  0.00000000E+00  0.00000000E+00
  0.00000000E+00  0.00000000E+00  0.00000000E+00
  0.00000000E+00  0.00000000E+00  0.00000000E+00
  0.00000000E+00  0.00000000E+00  0.00000000E+00
  0.00000000E+00  0.00000000E+00  0.00000000E+00
  0.00000000E+00  0.00000000E+00  0.00000000E+00
  0.00000000E+00  0.00000000E+00  0.00000000E+00
  0.00000000E+00  0.00000000E+00  0.00000000E+00
  0.00000000E+00  0.00000000E+00  0.00000000E+00
  0.00000000E+00  0.00000000E+00  0.00000000E+00
  0.00000000E+00  0.00000000E+00  0.00000000E+00
  0.00000000E+00  0.00000000E+00  0.00000000E+00
  0.00000000E+00  0.00000000E+00  0.00000000E+00
  0.00000000E+00  0.00000000E+00  0.00000000E+00
  0.00000000E+00  0.00000000E+00  0.00000000E+00
  0.00000000E+00  0.00000000E+00  0.00000000E+00
  0.00000000E+00  0.00000000E+00  0.00000000E+00
  0.00000000E+00  0.00000000E+00  0.00000000E+00
