Au Pd                                   
   1.00000000000000     
    11.0025815152626798    0.0000000000000000    0.0000000000000000
     5.5012907576313399    9.5285150994265617    0.0000000000000000
     0.0000000000000000    0.0000000000000000   24.4917850942952882
   Au   Pd
    24    24
Selective dynamics
Direct
  0.0833333333333357  0.0833333333333357  0.4083001692812189   F   F   F
  0.9183124923832726  0.4135136395662004  0.5067660080651347   T   T   T
 -0.0006012182536428  0.4988098737294495  0.6137250694926319   T   T   T
  0.3333333333333357  0.0833333333333357  0.4083001692812189   F   F   F
  0.1689412268746836  0.1628519054361193  0.5091235755507990   T   T   T
  0.9180675939604065  0.6665854775063493  0.5062966620635296   T   T   T
  0.0012060112591098  0.0015747667004695  0.6095624041576064   T   T   T
  0.7504262276022516  0.7489680446382513  0.6123115877185218   T   T   T
  0.1696032924956115  0.4147351377545846  0.5065378153251239   T   T   T
  0.3333333333333357  0.5833333333333357  0.4083001692812189   F   F   F
  0.2484680192595110  0.5034677003019563  0.6116838168936010   T   T   T
  0.3333333333333357  0.8333333333333357  0.4083001692812189   F   F   F
  0.9191248592249854  0.9148901883895515  0.5071404271515879   T   T   T
  0.4972204160965391  0.0016925090350638  0.6091931407568750   T   T   T
  0.4191680746545329  0.4122650738616875  0.5077672853566008   T   T   T
  0.4996011572103844  0.2521967594134988  0.6112182792148073   T   T   T
  0.4154937250923990  0.6678120106034834  0.5097527338545432   T   T   T
  0.5833333333333357  0.8333333333333357  0.4083001692812189   F   F   F
  0.4971613151565000  0.7493617567661299  0.6134619810153978   T   T   T
  0.8333333333333357  0.0833333333333357  0.4083001692812189   F   F   F
  0.7507377111691727  0.0015848575205604  0.6101987713838594   T   T   T
  0.6686603498988757  0.4123350802208716  0.5064373180618499   T   T   T
  0.6669321999447958  0.6668923957609493  0.5079953429966830   T   T   T
  0.5833333333333357  0.0833333333333357  0.4083001692812189   F   F   F
  0.5833333333333357  0.5833333333333357  0.4083001692812189   F   F   F
  0.0833333333333357  0.8333333333333357  0.4083001692812189   F   F   F
  0.5833333333333357  0.3333333333333357  0.4083001692812189   F   F   F
  0.4205726676061610  0.1628837752841472  0.5085816225368704   T   T   T
  0.2482833648283258  0.0016338978854889  0.6057727025858534   T   T   T
  0.6668221531471969  0.9169353199377213  0.5088455900624290   T   T   T
  0.1671919768764267  0.9151259805441379  0.5085118566612368   T   T   T
  0.1681600426494702  0.6656582597594789  0.5073333352560034   T   T   T
  0.3333333333333357  0.3333333333333357  0.4083001692812189   F   F   F
  0.0001874218576703  0.7502404081281907  0.6052795241714700   T   T   T
  0.0833333333333357  0.5833333333333357  0.4083001692812189   F   F   F
  0.7494782997010989  0.4984829577096836  0.6058783872524385   T   T   T
 -0.0009329508683374  0.2510964813322179  0.6057771795682012   T   T   T
  0.7497196443999997  0.2532513264187080  0.6049052255404135   T   T   T
  0.8333333333333357  0.8333333333333357  0.4083001692812189   F   F   F
  0.9174076107903791  0.1637553076445558  0.5082607449237871   T   T   T
  0.8333333333333357  0.5833333333333357  0.4083001692812189   F   F   F
  0.2483506141094350  0.2508291638458388  0.6054624229924777   T   T   T
  0.8333333333333357  0.3333333333333357  0.4083001692812189   F   F   F
  0.0833333333333357  0.3333333333333357  0.4083001692812189   F   F   F
  0.6682011763902131  0.1636449915294911  0.5085051915035755   T   T   T
  0.4176614831016073  0.9159993646842706  0.5101538737332219   T   T   T
  0.5005735370826170  0.5000692324513073  0.6062558120054432   T   T   T
  0.2483278542681323  0.7510216587258953  0.6053649925901405   T   T   T
 
  0.00000000E+00  0.00000000E+00  0.00000000E+00
  0.00000000E+00  0.00000000E+00  0.00000000E+00
  0.00000000E+00  0.00000000E+00  0.00000000E+00
  0.00000000E+00  0.00000000E+00  0.00000000E+00
  0.00000000E+00  0.00000000E+00  0.00000000E+00
  0.00000000E+00  0.00000000E+00  0.00000000E+00
  0.00000000E+00  0.00000000E+00  0.00000000E+00
  0.00000000E+00  0.00000000E+00  0.00000000E+00
  0.00000000E+00  0.00000000E+00  0.00000000E+00
  0.00000000E+00  0.00000000E+00  0.00000000E+00
  0.00000000E+00  0.00000000E+00  0.00000000E+00
  0.00000000E+00  0.00000000E+00  0.00000000E+00
  0.00000000E+00  0.00000000E+00  0.00000000E+00
  0.00000000E+00  0.00000000E+00  0.00000000E+00
  0.00000000E+00  0.00000000E+00  0.00000000E+00
  0.00000000E+00  0.00000000E+00  0.00000000E+00
  0.00000000E+00  0.00000000E+00  0.00000000E+00
  0.00000000E+00  0.00000000E+00  0.00000000E+00
  0.00000000E+00  0.00000000E+00  0.00000000E+00
  0.00000000E+00  0.00000000E+00  0.00000000E+00
  0.00000000E+00  0.00000000E+00  0.00000000E+00
  0.00000000E+00  0.00000000E+00  0.00000000E+00
  0.00000000E+00  0.00000000E+00  0.00000000E+00
  0.00000000E+00  0.00000000E+00  0.00000000E+00
  0.00000000E+00  0.00000000E+00  0.00000000E+00
  0.00000000E+00  0.00000000E+00  0.00000000E+00
  0.00000000E+00  0.00000000E+00  0.00000000E+00
  0.00000000E+00  0.00000000E+00  0.00000000E+00
  0.00000000E+00  0.00000000E+00  0.00000000E+00
  0.00000000E+00  0.00000000E+00  0.00000000E+00
  0.00000000E+00  0.00000000E+00  0.00000000E+00
  0.00000000E+00  0.00000000E+00  0.00000000E+00
  0.00000000E+00  0.00000000E+00  0.00000000E+00
  0.00000000E+00  0.00000000E+00  0.00000000E+00
  0.00000000E+00  0.00000000E+00  0.00000000E+00
  0.00000000E+00  0.00000000E+00  0.00000000E+00
  0.00000000E+00  0.00000000E+00  0.00000000E+00
  0.00000000E+00  0.00000000E+00  0.00000000E+00
  0.00000000E+00  0.00000000E+00  0.00000000E+00
  0.00000000E+00  0.00000000E+00  0.00000000E+00
  0.00000000E+00  0.00000000E+00  0.00000000E+00
  0.00000000E+00  0.00000000E+00  0.00000000E+00
  0.00000000E+00  0.00000000E+00  0.00000000E+00
  0.00000000E+00  0.00000000E+00  0.00000000E+00
  0.00000000E+00  0.00000000E+00  0.00000000E+00
  0.00000000E+00  0.00000000E+00  0.00000000E+00
  0.00000000E+00  0.00000000E+00  0.00000000E+00
  0.00000000E+00  0.00000000E+00  0.00000000E+00
