Au  O Pd                                
   1.00000000000000     
    11.0025815152626798    0.0000000000000000    0.0000000000000000
     5.5012907576313399    9.5285150994265617    0.0000000000000000
     0.0000000000000000    0.0000000000000000   26.1917850942952910
   Au   O    Pd
    24     8    24
Selective dynamics
Direct
  0.0833333333333357  0.0833333333333357  0.3817991009012260   F   F   F
  0.2512370750826076  0.7560046505649155  0.5605322602812688   T   T   T
  0.6701832601092906  0.6644143899972152  0.4731463475998881   T   T   T
  0.8333333333333357  0.5833333333333357  0.3817991009012260   F   F   F
  0.8333333333333357  0.3333333333333357  0.3817991009012260   F   F   F
  0.7620037400655971  0.9990929087727577  0.5723407094785289   T   T   T
  0.6674109690141278  0.1680824333149015  0.4787429800058449   T   T   T
  0.8333333333333357  0.0833333333333357  0.3817991009012260   F   F   F
  0.5250938609513459  0.7354446318986141  0.5680684850426795   T   T   T
  0.4143760198105906  0.9193062377707131  0.4758321325564029   T   T   T
  0.4177955517803300  0.6663211912586133  0.4721879176445388   T   T   T
  0.2514005535869785  0.4986614872531224  0.5633654853925106   T   T   T
  0.9191428769072566  0.9154257635392761  0.4789027098692290   T   T   T
  0.4537132803519822  0.2623858581315166  0.5990626644519721   T   T   T
  0.3333333333333357  0.0833333333333357  0.3817991009012260   F   F   F
  0.1588861730587549  0.1708303099837638  0.4803157699766443   T   T   T
  0.2749476504073032  0.0112401484002990  0.6000790447662935   T   T   T
  0.4149486370010976  0.4160179437795356  0.4771980323973742   T   T   T
  0.3333333333333357  0.3333333333333357  0.3817991009012260   F   F   F
  0.5833333333333357  0.3333333333333357  0.3817991009012260   F   F   F
  0.5077558809487234 -0.0096268758193754  0.5654727584889100   T   T   T
  0.3333333333333357  0.5833333333333357  0.3817991009012260   F   F   F
  0.4129762625759702  0.1695855411368643  0.4787771197909492   T   T   T
  0.0043205629676601  0.7542170936967659  0.5702648180962819   T   T   T
  0.0772074206232304  0.0622273654174236  0.6267988962987946   T   T   T
  0.1626321783198011  0.3184022808118344  0.6395990797310810   T   T   T
  0.1125545102954766  0.6062199155735521  0.6284287753924398   T   T   T
  0.3546300377233078  0.8005659482606691  0.6201686105337076   T   T   T
  0.5827831661258607  0.3426974879270308  0.6117750632793632   T   T   T
  0.7998496363948480  0.6470544093911860  0.6241934637514377   T   T   T
  0.5984343371108967  0.0638113594719979  0.6252645833630587   T   T   T
  0.8151302112202722  0.3222811456911083  0.6246554506519419   T   T   T
 -0.0023708008541502  0.5097821616858269  0.6285731267523557   T   T   T
  0.1644173514865312  0.6682289659936880  0.4733135250025463   T   T   T
  0.0833333333333357  0.8333333333333357  0.3817991009012260   F   F   F
  0.5833333333333357  0.0833333333333357  0.3817991009012260   F   F   F
  0.5833333333333357  0.5833333333333357  0.3817991009012260   F   F   F
  0.5058727129932531  0.5016609869098630  0.5636432728208899   T   T   T
  0.7675016687040757  0.7409380492576608  0.5568747266701911   T   T   T
  0.5833333333333357  0.8333333333333357  0.3817991009012260   F   F   F
  0.9218456327686956  0.6628202852259442  0.4705412671433284   T   T   T
  0.3333333333333357  0.8333333333333357  0.3817991009012260   F   F   F
  0.0833333333333357  0.5833333333333357  0.3817991009012260   F   F   F
  0.0078115936548037  0.2737379840270950  0.6293026705208582   T   T   T
  0.9158383719247831  0.4185906774284938  0.4824134391838303   T   T   T
  0.6698143488980461  0.4169918717087795  0.4747377702863990   T   T   T
  0.7601212598367365  0.2480766149778082  0.5650353342457075   T   T   T
  0.0833333333333357  0.3333333333333357  0.3817991009012260   F   F   F
  0.0073711780477087  0.0105384544149289  0.5649799035173165   T   T   T
  0.7710234559382548  0.4976183487261528  0.5874385341095897   T   T   T
  0.9161764560374708  0.1715413464633377  0.4763558691220540   T   T   T
  0.8333333333333357  0.8333333333333357  0.3817991009012260   F   F   F
  0.6697109531177852  0.9175113654952337  0.4719728185132671   T   T   T
  0.1639723838822681  0.9204051331700495  0.4714287430675417   T   T   T
  0.1608588692416180  0.4194310839660533  0.4735758686173223   T   T   T
  0.2278618119174926  0.2568302463712476  0.5676735153453183   T   T   T
 
  0.00000000E+00  0.00000000E+00  0.00000000E+00
  0.00000000E+00  0.00000000E+00  0.00000000E+00
  0.00000000E+00  0.00000000E+00  0.00000000E+00
  0.00000000E+00  0.00000000E+00  0.00000000E+00
  0.00000000E+00  0.00000000E+00  0.00000000E+00
  0.00000000E+00  0.00000000E+00  0.00000000E+00
  0.00000000E+00  0.00000000E+00  0.00000000E+00
  0.00000000E+00  0.00000000E+00  0.00000000E+00
  0.00000000E+00  0.00000000E+00  0.00000000E+00
  0.00000000E+00  0.00000000E+00  0.00000000E+00
  0.00000000E+00  0.00000000E+00  0.00000000E+00
  0.00000000E+00  0.00000000E+00  0.00000000E+00
  0.00000000E+00  0.00000000E+00  0.00000000E+00
  0.00000000E+00  0.00000000E+00  0.00000000E+00
  0.00000000E+00  0.00000000E+00  0.00000000E+00
  0.00000000E+00  0.00000000E+00  0.00000000E+00
  0.00000000E+00  0.00000000E+00  0.00000000E+00
  0.00000000E+00  0.00000000E+00  0.00000000E+00
  0.00000000E+00  0.00000000E+00  0.00000000E+00
  0.00000000E+00  0.00000000E+00  0.00000000E+00
  0.00000000E+00  0.00000000E+00  0.00000000E+00
  0.00000000E+00  0.00000000E+00  0.00000000E+00
  0.00000000E+00  0.00000000E+00  0.00000000E+00
  0.00000000E+00  0.00000000E+00  0.00000000E+00
  0.00000000E+00  0.00000000E+00  0.00000000E+00
  0.00000000E+00  0.00000000E+00  0.00000000E+00
  0.00000000E+00  0.00000000E+00  0.00000000E+00
  0.00000000E+00  0.00000000E+00  0.00000000E+00
  0.00000000E+00  0.00000000E+00  0.00000000E+00
  0.00000000E+00  0.00000000E+00  0.00000000E+00
  0.00000000E+00  0.00000000E+00  0.00000000E+00
  0.00000000E+00  0.00000000E+00  0.00000000E+00
  0.00000000E+00  0.00000000E+00  0.00000000E+00
  0.00000000E+00  0.00000000E+00  0.00000000E+00
  0.00000000E+00  0.00000000E+00  0.00000000E+00
  0.00000000E+00  0.00000000E+00  0.00000000E+00
  0.00000000E+00  0.00000000E+00  0.00000000E+00
  0.00000000E+00  0.00000000E+00  0.00000000E+00
  0.00000000E+00  0.00000000E+00  0.00000000E+00
  0.00000000E+00  0.00000000E+00  0.00000000E+00
  0.00000000E+00  0.00000000E+00  0.00000000E+00
  0.00000000E+00  0.00000000E+00  0.00000000E+00
  0.00000000E+00  0.00000000E+00  0.00000000E+00
  0.00000000E+00  0.00000000E+00  0.00000000E+00
  0.00000000E+00  0.00000000E+00  0.00000000E+00
  0.00000000E+00  0.00000000E+00  0.00000000E+00
  0.00000000E+00  0.00000000E+00  0.00000000E+00
  0.00000000E+00  0.00000000E+00  0.00000000E+00
  0.00000000E+00  0.00000000E+00  0.00000000E+00
  0.00000000E+00  0.00000000E+00  0.00000000E+00
  0.00000000E+00  0.00000000E+00  0.00000000E+00
  0.00000000E+00  0.00000000E+00  0.00000000E+00
  0.00000000E+00  0.00000000E+00  0.00000000E+00
  0.00000000E+00  0.00000000E+00  0.00000000E+00
  0.00000000E+00  0.00000000E+00  0.00000000E+00
  0.00000000E+00  0.00000000E+00  0.00000000E+00
