Au  O Pd                                
   1.00000000000000     
    11.0025815152626798    0.0000000000000000    0.0000000000000000
     5.5012907576313399    9.5285150994265617    0.0000000000000000
     0.0000000000000000    0.0000000000000000   26.1917850942952910
   Au   O    Pd
    24     8    24
Selective dynamics
Direct
  0.0833333333333357  0.0833333333333357  0.3817991009012260   F   F   F
  0.2438336393677621  0.7553950142933257  0.5608172824702817   T   T   T
  0.6677406283945762  0.6634861443599289  0.4741632663633062   T   T   T
  0.8333333333333357  0.5833333333333357  0.3817991009012260   F   F   F
  0.8333333333333357  0.3333333333333357  0.3817991009012260   F   F   F
  0.7649294441074398 -0.0073840176449764  0.5926002363080570   T   T   T
  0.6643465506520689  0.1641337262140895  0.4808311179322148   T   T   T
  0.8333333333333357  0.0833333333333357  0.3817991009012260   F   F   F
  0.5198389341139636  0.7418077782466923  0.5716121621756051   T   T   T
  0.4125338154309499  0.9180265026250791  0.4768238678430629   T   T   T
  0.4159155316235158  0.6656651539994468  0.4730546001396189   T   T   T
  0.2460784178764472  0.5013966434214286  0.5644437268192191   T   T   T
  0.9143650485356644  0.9151068086565427  0.4782226748618152   T   T   T
  0.4518489931271805  0.2706329262702365  0.6045954358034624   T   T   T
  0.3333333333333357  0.0833333333333357  0.3817991009012260   F   F   F
  0.1554717716439519  0.1705275995493731  0.4801704090209079   T   T   T
  0.2571293348907578  0.0119857663307659  0.5791960042130836   T   T   T
  0.4146953657446488  0.4146187226152339  0.4789225854767213   T   T   T
  0.3333333333333357  0.3333333333333357  0.3817991009012260   F   F   F
  0.5833333333333357  0.3333333333333357  0.3817991009012260   F   F   F
  0.5062347452768167  0.0006560220065865  0.5687215819019702   T   T   T
  0.3333333333333357  0.5833333333333357  0.3817991009012260   F   F   F
  0.4123179340588833  0.1673195664158967  0.4767960032498630   T   T   T
 -0.0026806476595238  0.7533113088089386  0.5666466223307979   T   T   T
  0.0710695000540705  0.0606948940203802  0.6249472744147558   T   T   T
  0.1675407387960188  0.3015283190506203  0.6365013158159036   T   T   T
  0.0994473733650649  0.6061353665952820  0.6264359106043114   T   T   T
  0.3441856998825359  0.8079734816007682  0.6182783857462221   T   T   T
  0.5788735172443812  0.3533520643550640  0.6171375785753580   T   T   T
  0.8027329006452414  0.6306316405677252  0.6213481457092712   T   T   T
  0.5844687045069517  0.0736818544302006  0.6351917948937389   T   T   T
  0.8123105242404709  0.3313175148591614  0.6162263085560147   T   T   T
 -0.0010897077307220  0.4969833284289539  0.6292698457763608   T   T   T
  0.1625505364285029  0.6675596908484867  0.4723911362989417   T   T   T
  0.0833333333333357  0.8333333333333357  0.3817991009012260   F   F   F
  0.5833333333333357  0.0833333333333357  0.3817991009012260   F   F   F
  0.5833333333333357  0.5833333333333357  0.3817991009012260   F   F   F
  0.4979011908774208  0.5062340520981452  0.5661086647652127   T   T   T
  0.7578567956275009  0.7491063035680676  0.5587468869067370   T   T   T
  0.5833333333333357  0.8333333333333357  0.3817991009012260   F   F   F
  0.9189228329093142  0.6629884830056707  0.4712601401735583   T   T   T
  0.3333333333333357  0.8333333333333357  0.3817991009012260   F   F   F
  0.0833333333333357  0.5833333333333357  0.3817991009012260   F   F   F
  0.0077273949866648  0.2671209672953033  0.6198398530932485   T   T   T
  0.9152048336412387  0.4166426198171667  0.4753058712992056   T   T   T
  0.6671660821181115  0.4153680010350217  0.4759059604834582   T   T   T
  0.7450245149468979  0.2435448955314932  0.5661801107854441   T   T   T
  0.0833333333333357  0.3333333333333357  0.3817991009012260   F   F   F
 -0.0039358096362627  0.0079983672540690  0.5658644005652931   T   T   T
  0.7700895522452171  0.4956631146117034  0.5727777977368291   T   T   T
  0.9105391797204057  0.1703251928350978  0.4775023391064825   T   T   T
  0.8333333333333357  0.8333333333333357  0.3817991009012260   F   F   F
  0.6657739045704913  0.9156817970521005  0.4735672750080177   T   T   T
  0.1597042507298946  0.9200832067572454  0.4717435876483198   T   T   T
  0.1603936999013245  0.4185777766975798  0.4732841752132841   T   T   T
  0.2383546039185270  0.2599628335814047  0.5640788967581705   T   T   T
 
  0.00000000E+00  0.00000000E+00  0.00000000E+00
  0.00000000E+00  0.00000000E+00  0.00000000E+00
  0.00000000E+00  0.00000000E+00  0.00000000E+00
  0.00000000E+00  0.00000000E+00  0.00000000E+00
  0.00000000E+00  0.00000000E+00  0.00000000E+00
  0.00000000E+00  0.00000000E+00  0.00000000E+00
  0.00000000E+00  0.00000000E+00  0.00000000E+00
  0.00000000E+00  0.00000000E+00  0.00000000E+00
  0.00000000E+00  0.00000000E+00  0.00000000E+00
  0.00000000E+00  0.00000000E+00  0.00000000E+00
  0.00000000E+00  0.00000000E+00  0.00000000E+00
  0.00000000E+00  0.00000000E+00  0.00000000E+00
  0.00000000E+00  0.00000000E+00  0.00000000E+00
  0.00000000E+00  0.00000000E+00  0.00000000E+00
  0.00000000E+00  0.00000000E+00  0.00000000E+00
  0.00000000E+00  0.00000000E+00  0.00000000E+00
  0.00000000E+00  0.00000000E+00  0.00000000E+00
  0.00000000E+00  0.00000000E+00  0.00000000E+00
  0.00000000E+00  0.00000000E+00  0.00000000E+00
  0.00000000E+00  0.00000000E+00  0.00000000E+00
  0.00000000E+00  0.00000000E+00  0.00000000E+00
  0.00000000E+00  0.00000000E+00  0.00000000E+00
  0.00000000E+00  0.00000000E+00  0.00000000E+00
  0.00000000E+00  0.00000000E+00  0.00000000E+00
  0.00000000E+00  0.00000000E+00  0.00000000E+00
  0.00000000E+00  0.00000000E+00  0.00000000E+00
  0.00000000E+00  0.00000000E+00  0.00000000E+00
  0.00000000E+00  0.00000000E+00  0.00000000E+00
  0.00000000E+00  0.00000000E+00  0.00000000E+00
  0.00000000E+00  0.00000000E+00  0.00000000E+00
  0.00000000E+00  0.00000000E+00  0.00000000E+00
  0.00000000E+00  0.00000000E+00  0.00000000E+00
  0.00000000E+00  0.00000000E+00  0.00000000E+00
  0.00000000E+00  0.00000000E+00  0.00000000E+00
  0.00000000E+00  0.00000000E+00  0.00000000E+00
  0.00000000E+00  0.00000000E+00  0.00000000E+00
  0.00000000E+00  0.00000000E+00  0.00000000E+00
  0.00000000E+00  0.00000000E+00  0.00000000E+00
  0.00000000E+00  0.00000000E+00  0.00000000E+00
  0.00000000E+00  0.00000000E+00  0.00000000E+00
  0.00000000E+00  0.00000000E+00  0.00000000E+00
  0.00000000E+00  0.00000000E+00  0.00000000E+00
  0.00000000E+00  0.00000000E+00  0.00000000E+00
  0.00000000E+00  0.00000000E+00  0.00000000E+00
  0.00000000E+00  0.00000000E+00  0.00000000E+00
  0.00000000E+00  0.00000000E+00  0.00000000E+00
  0.00000000E+00  0.00000000E+00  0.00000000E+00
  0.00000000E+00  0.00000000E+00  0.00000000E+00
  0.00000000E+00  0.00000000E+00  0.00000000E+00
  0.00000000E+00  0.00000000E+00  0.00000000E+00
  0.00000000E+00  0.00000000E+00  0.00000000E+00
  0.00000000E+00  0.00000000E+00  0.00000000E+00
  0.00000000E+00  0.00000000E+00  0.00000000E+00
  0.00000000E+00  0.00000000E+00  0.00000000E+00
  0.00000000E+00  0.00000000E+00  0.00000000E+00
  0.00000000E+00  0.00000000E+00  0.00000000E+00
