Au Pd                                   
   1.00000000000000     
    11.0025815152626798    0.0000000000000000    0.0000000000000000
     5.5012907576313399    9.5285150994265617    0.0000000000000000
     0.0000000000000000    0.0000000000000000   24.4917850942952882
   Au   Pd
    24    24
Direct
  0.0819534559088983  0.0842221569793141  0.3964808697537530
  0.8337469754424549  0.8344463466083808  0.3942975003553848
  0.7517065151521224  0.2495747255160226  0.6081021540222179
  0.6685925456271968  0.4177691396374987  0.5009562923761188
  0.6669255570295106  0.1649586787223791  0.5006889223626628
  0.4996981613149200  0.7476349528398105  0.6035259375256581
  0.4165110246863967  0.6679694068065696  0.4994760261554892
  0.5858445434176474  0.5843534616011845  0.3966574180796797
  0.4982283400878026  0.2516989301301318  0.6038261084968817
  0.4139023104000697  0.4165955080956172  0.4994336255621412
  0.4984300880156575  0.0017657337401549  0.6028706909617709
  0.5845031011674043  0.0837890421645315  0.3961563228052724
  0.6654707416673968  0.9155106620917479  0.5007629791948262
  0.1657700467912353  0.9162762808644433  0.4993692672411310
  0.3338152137473544  0.5857992877981656  0.3936998956081587
  0.7509457169355465  0.7482196787161927  0.6053238898073033
  0.0828172623603746  0.5835888578572257  0.3959961902562035
  0.3329013519323824  0.3334526306389041  0.3971201266170618
  0.9178766013717014  0.6646299643957817  0.4993672494282952
  0.0025869582938397  0.4956451741225073  0.6022523593692080
  0.3334287334105223  0.0815628255173594  0.4001425850370902
  0.0013514518420400  0.7514520506119926  0.6001446002018254
  0.2459110382366987  0.0020061897039056  0.6022480470042395
  0.9180117058857039  0.1666925429217108  0.5004327825815066
 -0.0007935160325870 -0.0001078118913708  0.5972804672717168
  0.6669761007262771  0.6666332703807274  0.5017368761399569
  0.8333655486540706  0.0851678929807089  0.4024193843376381
  0.0799329068042749  0.3351339266998313  0.4043090709340847
  0.8335302452249412  0.3346329344367989  0.4029900611741556
  0.7504133650947642  0.0004623865348937  0.5982047613714895
  0.9185919145075160  0.4164113679545379  0.5013594069484191
  0.7499831743941593  0.4984452437233855  0.5984811839766677
  0.8340559123708196  0.5820633979899651  0.4042549551538165
 -0.0003123113819174  0.2497812207037270  0.5971927001234714
  0.1661649047153251  0.4154747523495057  0.4986815916582767
  0.5846368282679399  0.8321701244661548  0.4049280429842982
  0.4992071140980153  0.5001085834770691  0.5980495324426236
  0.0830800299165105  0.8347092819558031  0.4019092197843235
  0.5857589507155504  0.3336797648855203  0.4026503119023386
  0.9170191103505601  0.9145142596400063  0.4987452813305735
  0.4146600982541821  0.1665283504749773  0.4992835224622464
  0.1677838219495095  0.1675039010380592  0.4995624166476817
  0.3343937261910565  0.8335766410140105  0.4022009574219544
  0.2502438029812608  0.5005447793416725  0.5954329163295283
  0.1655331720932463  0.6654718777508866  0.4978754608064038
  0.2495966083203760  0.2506800159032225  0.5946630950098896
  0.4154054172956810  0.9182896025595745  0.5021224450575880
  0.2498436337635917  0.7485100075487989  0.5963344979269776
 
  0.00000000E+00  0.00000000E+00  0.00000000E+00
  0.00000000E+00  0.00000000E+00  0.00000000E+00
  0.00000000E+00  0.00000000E+00  0.00000000E+00
  0.00000000E+00  0.00000000E+00  0.00000000E+00
  0.00000000E+00  0.00000000E+00  0.00000000E+00
  0.00000000E+00  0.00000000E+00  0.00000000E+00
  0.00000000E+00  0.00000000E+00  0.00000000E+00
  0.00000000E+00  0.00000000E+00  0.00000000E+00
  0.00000000E+00  0.00000000E+00  0.00000000E+00
  0.00000000E+00  0.00000000E+00  0.00000000E+00
  0.00000000E+00  0.00000000E+00  0.00000000E+00
  0.00000000E+00  0.00000000E+00  0.00000000E+00
  0.00000000E+00  0.00000000E+00  0.00000000E+00
  0.00000000E+00  0.00000000E+00  0.00000000E+00
  0.00000000E+00  0.00000000E+00  0.00000000E+00
  0.00000000E+00  0.00000000E+00  0.00000000E+00
  0.00000000E+00  0.00000000E+00  0.00000000E+00
  0.00000000E+00  0.00000000E+00  0.00000000E+00
  0.00000000E+00  0.00000000E+00  0.00000000E+00
  0.00000000E+00  0.00000000E+00  0.00000000E+00
  0.00000000E+00  0.00000000E+00  0.00000000E+00
  0.00000000E+00  0.00000000E+00  0.00000000E+00
  0.00000000E+00  0.00000000E+00  0.00000000E+00
  0.00000000E+00  0.00000000E+00  0.00000000E+00
  0.00000000E+00  0.00000000E+00  0.00000000E+00
  0.00000000E+00  0.00000000E+00  0.00000000E+00
  0.00000000E+00  0.00000000E+00  0.00000000E+00
  0.00000000E+00  0.00000000E+00  0.00000000E+00
  0.00000000E+00  0.00000000E+00  0.00000000E+00
  0.00000000E+00  0.00000000E+00  0.00000000E+00
  0.00000000E+00  0.00000000E+00  0.00000000E+00
  0.00000000E+00  0.00000000E+00  0.00000000E+00
  0.00000000E+00  0.00000000E+00  0.00000000E+00
  0.00000000E+00  0.00000000E+00  0.00000000E+00
  0.00000000E+00  0.00000000E+00  0.00000000E+00
  0.00000000E+00  0.00000000E+00  0.00000000E+00
  0.00000000E+00  0.00000000E+00  0.00000000E+00
  0.00000000E+00  0.00000000E+00  0.00000000E+00
  0.00000000E+00  0.00000000E+00  0.00000000E+00
  0.00000000E+00  0.00000000E+00  0.00000000E+00
  0.00000000E+00  0.00000000E+00  0.00000000E+00
  0.00000000E+00  0.00000000E+00  0.00000000E+00
  0.00000000E+00  0.00000000E+00  0.00000000E+00
  0.00000000E+00  0.00000000E+00  0.00000000E+00
  0.00000000E+00  0.00000000E+00  0.00000000E+00
  0.00000000E+00  0.00000000E+00  0.00000000E+00
  0.00000000E+00  0.00000000E+00  0.00000000E+00
  0.00000000E+00  0.00000000E+00  0.00000000E+00
