Au Pd                                   
   1.00000000000000     
    11.0025815152626798    0.0000000000000000    0.0000000000000000
     5.5012907576313399    9.5285150994265617    0.0000000000000000
     0.0000000000000000    0.0000000000000000   24.4917850942952882
   Au   Pd
    24    24
Direct
  0.0802022172066339  0.0830634079570604  0.3934277876601827
  0.8361879939061725  0.8336024685137466  0.3978530196895965
  0.7469542450251837  0.4995693588947324  0.6050713565141705
  0.6652253252292724  0.6680115290928923  0.4997679897603811
  0.6674334754605936  0.1657526798127271  0.5003739215766458
  0.5855319329935276  0.8335691877586610  0.3957877981738936
  0.4150444443536324  0.6660713667579226  0.4998671885956334
  0.5853100852142200  0.5807957650314026  0.3952941697320829
  0.5006354831162281  0.2522283458967186  0.6052204586745371
  0.5827922836798802  0.3326783407048087  0.3987102722296479
  0.5007955565194292 -0.0026936286342991  0.6003654119366728
  0.4185213858763979  0.1649722618179355  0.4998161605370200
  0.3319552712981472  0.8319426727120396  0.3964663250771341
  0.2487911532202833  0.2492568406736445  0.6067637551343587
  0.1689715207115342  0.4179971566565460  0.5020034334664485
  0.2499452916923833  0.7515046053489932  0.6027658931892802
  0.1685876535749224  0.1638780979137473  0.4990357914545233
  0.9174091960459009  0.1644738057755854  0.4991154793512655
  0.0823739395710956  0.3362417633534064  0.3948094093088874
  0.3343096446387817  0.0851053886435087  0.3942297741923115
  0.9173974124203945  0.6685179186228545  0.5013319247619975
 -0.0016296413290669  0.5004930853564167  0.6081165922757696
  0.9158746839266098  0.4162278076810587  0.5008248182955644
 -0.0021999711499335  0.7533084546851664  0.6042583316998923
  0.2481822094154199 -0.0001376801701950  0.5947514291741784
  0.8340663389765925  0.0824293516469650  0.4023422808136173
  0.7503236821125773  0.0002087068879075  0.5964404659617769
  0.6655164066916988  0.4170071280697399  0.4994687339710226
  0.4989306256514791  0.7506615121467831  0.5960178889825466
  0.7502421738583258  0.2496888545230670  0.5971757563044565
  0.8349685753910387  0.5825315843191138  0.4028156640630746
 -0.0019575816044153  0.0032026667939872  0.5965121653100350
  0.8335547830801715  0.3332153800669515  0.4016622731536235
  0.4168624681066284  0.9161695887803023  0.4973440119603338
  0.0855822072151586  0.5830958525091293  0.4047118176526007
  0.4998591846747577  0.4997501949639190  0.5973610116038287
  0.3335814475638021  0.3348204589825454  0.4036480965310660
  0.4171839264076873  0.4169246709944979  0.5015335806893533
  0.0839496491706999  0.8317939868692471  0.4044492940222127
  0.9192632366506589  0.9141579997433861  0.5005473629906108
  0.5842203848101645  0.0839321235592458  0.4019059888678743
  0.6674323974926007  0.9160403440381971  0.4986827662720293
  0.1671480619952550  0.9149817376246098  0.4988115016099303
  0.2495552226063949  0.5007421269282583  0.5995256583641815
  0.1664349612565403  0.6685592663391821  0.5027332074672521
  0.3307596132258810  0.5833853641415195  0.4045196889335649
 -0.0007075606640473  0.2490480692802299  0.5980133499960216
  0.7486270027127057  0.7512220299341350  0.5977489420169108
 
  0.00000000E+00  0.00000000E+00  0.00000000E+00
  0.00000000E+00  0.00000000E+00  0.00000000E+00
  0.00000000E+00  0.00000000E+00  0.00000000E+00
  0.00000000E+00  0.00000000E+00  0.00000000E+00
  0.00000000E+00  0.00000000E+00  0.00000000E+00
  0.00000000E+00  0.00000000E+00  0.00000000E+00
  0.00000000E+00  0.00000000E+00  0.00000000E+00
  0.00000000E+00  0.00000000E+00  0.00000000E+00
  0.00000000E+00  0.00000000E+00  0.00000000E+00
  0.00000000E+00  0.00000000E+00  0.00000000E+00
  0.00000000E+00  0.00000000E+00  0.00000000E+00
  0.00000000E+00  0.00000000E+00  0.00000000E+00
  0.00000000E+00  0.00000000E+00  0.00000000E+00
  0.00000000E+00  0.00000000E+00  0.00000000E+00
  0.00000000E+00  0.00000000E+00  0.00000000E+00
  0.00000000E+00  0.00000000E+00  0.00000000E+00
  0.00000000E+00  0.00000000E+00  0.00000000E+00
  0.00000000E+00  0.00000000E+00  0.00000000E+00
  0.00000000E+00  0.00000000E+00  0.00000000E+00
  0.00000000E+00  0.00000000E+00  0.00000000E+00
  0.00000000E+00  0.00000000E+00  0.00000000E+00
  0.00000000E+00  0.00000000E+00  0.00000000E+00
  0.00000000E+00  0.00000000E+00  0.00000000E+00
  0.00000000E+00  0.00000000E+00  0.00000000E+00
  0.00000000E+00  0.00000000E+00  0.00000000E+00
  0.00000000E+00  0.00000000E+00  0.00000000E+00
  0.00000000E+00  0.00000000E+00  0.00000000E+00
  0.00000000E+00  0.00000000E+00  0.00000000E+00
  0.00000000E+00  0.00000000E+00  0.00000000E+00
  0.00000000E+00  0.00000000E+00  0.00000000E+00
  0.00000000E+00  0.00000000E+00  0.00000000E+00
  0.00000000E+00  0.00000000E+00  0.00000000E+00
  0.00000000E+00  0.00000000E+00  0.00000000E+00
  0.00000000E+00  0.00000000E+00  0.00000000E+00
  0.00000000E+00  0.00000000E+00  0.00000000E+00
  0.00000000E+00  0.00000000E+00  0.00000000E+00
  0.00000000E+00  0.00000000E+00  0.00000000E+00
  0.00000000E+00  0.00000000E+00  0.00000000E+00
  0.00000000E+00  0.00000000E+00  0.00000000E+00
  0.00000000E+00  0.00000000E+00  0.00000000E+00
  0.00000000E+00  0.00000000E+00  0.00000000E+00
  0.00000000E+00  0.00000000E+00  0.00000000E+00
  0.00000000E+00  0.00000000E+00  0.00000000E+00
  0.00000000E+00  0.00000000E+00  0.00000000E+00
  0.00000000E+00  0.00000000E+00  0.00000000E+00
  0.00000000E+00  0.00000000E+00  0.00000000E+00
  0.00000000E+00  0.00000000E+00  0.00000000E+00
  0.00000000E+00  0.00000000E+00  0.00000000E+00
