Au  O Pd                                
   1.00000000000000     
    11.0025815152626798    0.0000000000000000    0.0000000000000000
     5.5012907576313399    9.5285150994265617    0.0000000000000000
     0.0000000000000000    0.0000000000000000   26.1917850942952910
   Au   O    Pd
    24     8    24
Selective dynamics
Direct
  0.0833333333333357  0.0833333333333357  0.3817991009012260   F   F   F
  0.3333333333333357  0.8333333333333357  0.3817991009012260   F   F   F
  0.0833333333333357  0.8333333333333357  0.3817991009012260   F   F   F
  0.9138811198394124  0.1642782060083411  0.4823470911459349   T   T   T
  0.6672572529384511  0.9172502252738179  0.4779162498093150   T   T   T
  0.8333333333333357  0.8333333333333357  0.3817991009012260   F   F   F
  0.8333333333333357  0.5833333333333357  0.3817991009012260   F   F   F
  0.9156514987218295  0.4156412735860943  0.4761481723131916   T   T   T
  0.8333333333333357  0.3333333333333357  0.3817991009012260   F   F   F
  0.0833333333333357  0.5833333333333357  0.3817991009012260   F   F   F
  0.9181814891746658  0.6666910015217153  0.4778211309858062   T   T   T
  0.8333333333333357  0.0833333333333357  0.3817991009012260   F   F   F
  0.6626551648349919  0.1700507001280011  0.4856163408381346   T   T   T
  0.4167536451460349  0.9144727277371610  0.4780211409984645   T   T   T
  0.5833333333333357  0.8333333333333357  0.3817991009012260   F   F   F
  0.3333333333333357  0.0833333333333357  0.3817991009012260   F   F   F
  0.4191212468730424  0.6605498536825302  0.4860364046965018   T   T   T
  0.5833333333333357  0.5833333333333357  0.3817991009012260   F   F   F
  0.3333333333333357  0.3333333333333357  0.3817991009012260   F   F   F
  0.5833333333333357  0.3333333333333357  0.3817991009012260   F   F   F
  0.5833333333333357  0.0833333333333357  0.3817991009012260   F   F   F
  0.3333333333333357  0.5833333333333357  0.3817991009012260   F   F   F
  0.1695805826308796  0.6616249612491063  0.4868224524767338   T   T   T
  0.1641608790186082  0.9140401485982456  0.4836231614340039   T   T   T
  0.3168893938730402  0.3155884360676298  0.6157645372910077   T   T   T
  0.0682035445619001  0.8297384892495349  0.6215916385247406   T   T   T
  0.3283918348537639  0.5780634412775395  0.6234373870202663   T   T   T
  0.3391016881381039  0.8655324175773215  0.6188768792504051   T   T   T
  0.5809870154590200  0.3252446686837714  0.6214364835610851   T   T   T
  0.8653636005640428  0.3377634289643985  0.6169150906425105   T   T   T
  0.6002556069752641  0.5965580227811363  0.6198839201278173   T   T   T
  0.8289426526107503  0.0700826326893948  0.6201584328849123   T   T   T
  0.5000038677373161  0.2400033934493206  0.5768407375507911   T   T   T
  0.2473857112114747  0.2477668107277185  0.5613559217020532   T   T   T
  0.4163802443205299  0.4144109184093324  0.4820835428390530   T   T   T
  0.1663020594099021  0.1664467465739550  0.4762551910262483   T   T   T
  0.5024413630861253  0.0009285442327463  0.5646875003479336   T   T   T
  0.4157578319602053  0.1686289949239431  0.4750834454333703   T   T   T
  0.7526673403221014  0.7516614293289289  0.5663755003841304   T   T   T
  0.2511242178042146  0.7557030212255017  0.5852699640944664   T   T   T
  0.5020344092959089  0.5012344232684396  0.5801889128021109   T   T   T
  0.5068130864603347  0.7587035834063159  0.5737966615706612   T   T   T
 -0.0072780801856556  0.7458060962788230  0.5749000033178576   T   T   T
  0.9163346588043252  0.9156655460488854  0.4827769826983470   T   T   T
  0.7465351817639118 -0.0078481937467529  0.5739943822062480   T   T   T
  0.0012801510672813  0.5014891313366640  0.5640192105423980   T   T   T
  0.6649798737911371  0.4156046669863884  0.4828587965407501   T   T   T
  0.7558688822365699  0.2503651932651400  0.5816362237470163   T   T   T
  0.0110332792727683  0.2475751605966959  0.5654746560388412   T   T   T
  0.0833333333333357  0.3333333333333357  0.3817991009012260   F   F   F
  0.6657140637097017  0.6636236320019708  0.4799921573170804   T   T   T
  0.7583949944066303  0.5052956226764748  0.5718596113563794   T   T   T
  0.0071963675075564  0.0055796341777150  0.5824543195132522   T   T   T
  0.2394642460262736  0.5008321791900862  0.5784583704752856   T   T   T
  0.1689590991431646  0.4149188995873305  0.4743111317146164   T   T   T
  0.2486125201835657  0.0108701895015401  0.5667006834056536   T   T   T
 
  0.00000000E+00  0.00000000E+00  0.00000000E+00
  0.00000000E+00  0.00000000E+00  0.00000000E+00
  0.00000000E+00  0.00000000E+00  0.00000000E+00
  0.00000000E+00  0.00000000E+00  0.00000000E+00
  0.00000000E+00  0.00000000E+00  0.00000000E+00
  0.00000000E+00  0.00000000E+00  0.00000000E+00
  0.00000000E+00  0.00000000E+00  0.00000000E+00
  0.00000000E+00  0.00000000E+00  0.00000000E+00
  0.00000000E+00  0.00000000E+00  0.00000000E+00
  0.00000000E+00  0.00000000E+00  0.00000000E+00
  0.00000000E+00  0.00000000E+00  0.00000000E+00
  0.00000000E+00  0.00000000E+00  0.00000000E+00
  0.00000000E+00  0.00000000E+00  0.00000000E+00
  0.00000000E+00  0.00000000E+00  0.00000000E+00
  0.00000000E+00  0.00000000E+00  0.00000000E+00
  0.00000000E+00  0.00000000E+00  0.00000000E+00
  0.00000000E+00  0.00000000E+00  0.00000000E+00
  0.00000000E+00  0.00000000E+00  0.00000000E+00
  0.00000000E+00  0.00000000E+00  0.00000000E+00
  0.00000000E+00  0.00000000E+00  0.00000000E+00
  0.00000000E+00  0.00000000E+00  0.00000000E+00
  0.00000000E+00  0.00000000E+00  0.00000000E+00
  0.00000000E+00  0.00000000E+00  0.00000000E+00
  0.00000000E+00  0.00000000E+00  0.00000000E+00
  0.00000000E+00  0.00000000E+00  0.00000000E+00
  0.00000000E+00  0.00000000E+00  0.00000000E+00
  0.00000000E+00  0.00000000E+00  0.00000000E+00
  0.00000000E+00  0.00000000E+00  0.00000000E+00
  0.00000000E+00  0.00000000E+00  0.00000000E+00
  0.00000000E+00  0.00000000E+00  0.00000000E+00
  0.00000000E+00  0.00000000E+00  0.00000000E+00
  0.00000000E+00  0.00000000E+00  0.00000000E+00
  0.00000000E+00  0.00000000E+00  0.00000000E+00
  0.00000000E+00  0.00000000E+00  0.00000000E+00
  0.00000000E+00  0.00000000E+00  0.00000000E+00
  0.00000000E+00  0.00000000E+00  0.00000000E+00
  0.00000000E+00  0.00000000E+00  0.00000000E+00
  0.00000000E+00  0.00000000E+00  0.00000000E+00
  0.00000000E+00  0.00000000E+00  0.00000000E+00
  0.00000000E+00  0.00000000E+00  0.00000000E+00
  0.00000000E+00  0.00000000E+00  0.00000000E+00
  0.00000000E+00  0.00000000E+00  0.00000000E+00
  0.00000000E+00  0.00000000E+00  0.00000000E+00
  0.00000000E+00  0.00000000E+00  0.00000000E+00
  0.00000000E+00  0.00000000E+00  0.00000000E+00
  0.00000000E+00  0.00000000E+00  0.00000000E+00
  0.00000000E+00  0.00000000E+00  0.00000000E+00
  0.00000000E+00  0.00000000E+00  0.00000000E+00
  0.00000000E+00  0.00000000E+00  0.00000000E+00
  0.00000000E+00  0.00000000E+00  0.00000000E+00
  0.00000000E+00  0.00000000E+00  0.00000000E+00
  0.00000000E+00  0.00000000E+00  0.00000000E+00
  0.00000000E+00  0.00000000E+00  0.00000000E+00
  0.00000000E+00  0.00000000E+00  0.00000000E+00
  0.00000000E+00  0.00000000E+00  0.00000000E+00
  0.00000000E+00  0.00000000E+00  0.00000000E+00
