Au Pd                                   
   1.00000000000000     
    11.0025815152626798    0.0000000000000000    0.0000000000000000
     5.5012907576313399    9.5285150994265617    0.0000000000000000
     0.0000000000000000    0.0000000000000000   24.4917850942952882
   Au   Pd
    24    24
Selective dynamics
Direct
  0.0833333333333357  0.0833333333333357  0.4083001692812189   F   F   F
  0.0833333333333357  0.8333333333333357  0.4083001692812189   F   F   F
  0.0833333333333357  0.5833333333333357  0.4083001692812189   F   F   F
  0.3333333333333357  0.3333333333333357  0.4083001692812189   F   F   F
  0.7527847444312333  0.7482609895868170  0.6100362158891272   T   T   T
  0.1636545509731374  0.6664636837833010  0.5115648868348256   T   T   T
  0.5833333333333357  0.8333333333333357  0.4083001692812189   F   F   F
  0.8333333333333357  0.8333333333333357  0.4083001692812189   F   F   F
  0.7542926251114563  0.4978482494289416  0.6115074380931221   T   T   T
  0.8333333333333357  0.5833333333333357  0.4083001692812189   F   F   F
  0.6682777122715494  0.4159483481705079  0.5117904199334080   T   T   T
  0.8333333333333357  0.3333333333333357  0.4083001692812189   F   F   F
  0.3333333333333357  0.5833333333333357  0.4083001692812189   F   F   F
  0.4167102035142220  0.9149680163486242  0.5080607336973002   T   T   T
  0.4976210417954075  0.5039521469192014  0.6154802671967999   T   T   T
  0.1650491219937847  0.9175113641964602  0.5093482722411632   T   T   T
  0.5833333333333357  0.5833333333333357  0.4083001692812189   F   F   F
  0.4997289653570277  0.2509763199583322  0.6154243989771838   T   T   T
  0.4163357843037591  0.4153381574256448  0.5132058437374538   T   T   T
  0.5833333333333357  0.3333333333333357  0.4083001692812189   F   F   F
  0.4977379598715407 -0.0003142675321532  0.6134605448718198   T   T   T
  0.4148853334096071  0.1655353011417529  0.5098964603480723   T   T   T
  0.5833333333333357  0.0833333333333357  0.4083001692812189   F   F   F
  0.7536618511680103 -0.0000253910251338  0.6100417835054336   T   T   T
  0.9127434605320711  0.9186667405847236  0.5085838781828280   T   T   T
  0.0021147875342736  0.7496316680189875  0.6062828430938215   T   T   T
  0.3333333333333357  0.0833333333333357  0.4083001692812189   F   F   F
  0.1627728334542327  0.1695208982891092  0.5069795840827694   T   T   T
  0.3333333333333357  0.8333333333333357  0.4083001692812189   F   F   F
  0.1634909382106910  0.4161321772879428  0.5080003898195525   T   T   T
  0.6681277207779807  0.9153274463543967  0.5100683757988012   T   T   T
  0.2477475744382838  0.2510265425617145  0.6053155974973741   T   T   T
  0.4172666006786518  0.6656624904808894  0.5097551515526564   T   T   T
  0.2490342554425192  0.0012397245814392  0.6056464464393373   T   T   T
  0.0035481503172617  0.4983279187005264  0.6038823175921006   T   T   T
  0.9176648148004810  0.4163874382510511  0.5077176115379499   T   T   T
  0.8333333333333357  0.0833333333333357  0.4083001692812189   F   F   F
  0.6688710834155108  0.1642294759090040  0.5093614964220551   T   T   T
  0.0025598984312387  0.2481699007471781  0.6032007002994377   T   T   T
  0.7528812551128363  0.2486050608874431  0.6063844839435922   T   T   T
  0.0833333333333357  0.3333333333333357  0.4083001692812189   F   F   F
  0.6679111324670844  0.6658939104304959  0.5100330479966547   T   T   T
  0.0013126332899408  0.0009763845419267  0.6050622094376850   T   T   T
  0.9155300198581023  0.1665447421651502  0.5076477153745550   T   T   T
  0.2476050881917521  0.5002256041713762  0.6082139714438917   T   T   T
  0.9138398615112221  0.6667878272726365  0.5091780978032349   T   T   T
  0.4984935392101686  0.7507780307576434  0.6060984052522126   T   T   T
  0.2490611366029655  0.7522324380553989  0.6072107218490684   T   T   T
 
  0.00000000E+00  0.00000000E+00  0.00000000E+00
  0.00000000E+00  0.00000000E+00  0.00000000E+00
  0.00000000E+00  0.00000000E+00  0.00000000E+00
  0.00000000E+00  0.00000000E+00  0.00000000E+00
  0.00000000E+00  0.00000000E+00  0.00000000E+00
  0.00000000E+00  0.00000000E+00  0.00000000E+00
  0.00000000E+00  0.00000000E+00  0.00000000E+00
  0.00000000E+00  0.00000000E+00  0.00000000E+00
  0.00000000E+00  0.00000000E+00  0.00000000E+00
  0.00000000E+00  0.00000000E+00  0.00000000E+00
  0.00000000E+00  0.00000000E+00  0.00000000E+00
  0.00000000E+00  0.00000000E+00  0.00000000E+00
  0.00000000E+00  0.00000000E+00  0.00000000E+00
  0.00000000E+00  0.00000000E+00  0.00000000E+00
  0.00000000E+00  0.00000000E+00  0.00000000E+00
  0.00000000E+00  0.00000000E+00  0.00000000E+00
  0.00000000E+00  0.00000000E+00  0.00000000E+00
  0.00000000E+00  0.00000000E+00  0.00000000E+00
  0.00000000E+00  0.00000000E+00  0.00000000E+00
  0.00000000E+00  0.00000000E+00  0.00000000E+00
  0.00000000E+00  0.00000000E+00  0.00000000E+00
  0.00000000E+00  0.00000000E+00  0.00000000E+00
  0.00000000E+00  0.00000000E+00  0.00000000E+00
  0.00000000E+00  0.00000000E+00  0.00000000E+00
  0.00000000E+00  0.00000000E+00  0.00000000E+00
  0.00000000E+00  0.00000000E+00  0.00000000E+00
  0.00000000E+00  0.00000000E+00  0.00000000E+00
  0.00000000E+00  0.00000000E+00  0.00000000E+00
  0.00000000E+00  0.00000000E+00  0.00000000E+00
  0.00000000E+00  0.00000000E+00  0.00000000E+00
  0.00000000E+00  0.00000000E+00  0.00000000E+00
  0.00000000E+00  0.00000000E+00  0.00000000E+00
  0.00000000E+00  0.00000000E+00  0.00000000E+00
  0.00000000E+00  0.00000000E+00  0.00000000E+00
  0.00000000E+00  0.00000000E+00  0.00000000E+00
  0.00000000E+00  0.00000000E+00  0.00000000E+00
  0.00000000E+00  0.00000000E+00  0.00000000E+00
  0.00000000E+00  0.00000000E+00  0.00000000E+00
  0.00000000E+00  0.00000000E+00  0.00000000E+00
  0.00000000E+00  0.00000000E+00  0.00000000E+00
  0.00000000E+00  0.00000000E+00  0.00000000E+00
  0.00000000E+00  0.00000000E+00  0.00000000E+00
  0.00000000E+00  0.00000000E+00  0.00000000E+00
  0.00000000E+00  0.00000000E+00  0.00000000E+00
  0.00000000E+00  0.00000000E+00  0.00000000E+00
  0.00000000E+00  0.00000000E+00  0.00000000E+00
  0.00000000E+00  0.00000000E+00  0.00000000E+00
  0.00000000E+00  0.00000000E+00  0.00000000E+00
