Au  O Pd                                
   1.00000000000000     
    11.0025815152626798    0.0000000000000000    0.0000000000000000
     5.5012907576313399    9.5285150994265617    0.0000000000000000
     0.0000000000000000    0.0000000000000000   26.1917850942952910
   Au   O    Pd
    24     8    24
Selective dynamics
Direct
  0.0833333333333357  0.0833333333333357  0.3817991009012260   F   F   F
  0.9168510548945090  0.6652817809404791  0.4814069670995857   T   T   T
  0.0833333333333357  0.8333333333333357  0.3817991009012260   F   F   F
  0.0833333333333357  0.5833333333333357  0.3817991009012260   F   F   F
  0.9234231297907506  0.4108358874783160  0.4748820273257774   T   T   T
  0.0055048820497401  0.7594433224618201  0.5648562329699409   T   T   T
  0.7679882004321301  0.4820426907259255  0.5625010324392626   T   T   T
  0.2371347033819210  0.0090779533414589  0.5623824714517149   T   T   T
  0.8333333333333357  0.8333333333333357  0.3817991009012260   F   F   F
  0.8333333333333357  0.3333333333333357  0.3817991009012260   F   F   F
  0.7663488522059171  0.0167193841242537  0.5607819186595761   T   T   T
  0.5833333333333357  0.8333333333333357  0.3817991009012260   F   F   F
  0.5067735169167678  0.7449760086960614  0.5652673208437624   T   T   T
  0.5833333333333357  0.5833333333333357  0.3817991009012260   F   F   F
  0.5050472586135736  0.2498806862235878  0.5638346998027207   T   T   T
  0.5833333333333357  0.3333333333333357  0.3817991009012260   F   F   F
  0.4992044315256872  0.0091482003530539  0.5650009152569170   T   T   T
  0.2616988153803299  0.7477880542456850  0.5702498576601626   T   T   T
  0.1672407486030742  0.9173874813591925  0.4748276483622951   T   T   T
  0.7638951701454353  0.2432360540101996  0.6394499227915157   T   T   T
  0.1726249138741923  0.6639448684720923  0.4727926291730132   T   T   T
  0.2442607290391454  0.2530267280981743  0.5612972132317150   T   T   T
  0.3333333333333357  0.3333333333333357  0.3817991009012260   F   F   F
  0.5115888308926986  0.4955094589160670  0.5653265431060651   T   T   T
  0.5458167534548108  0.3508697121704482  0.6255346409486301   T   T   T
  0.1574613405787670  0.0469970931586090  0.6374105597633010   T   T   T
  0.5792351378095634  0.8432592824375260  0.6173612761595453   T   T   T
  0.8025853937501198  0.4051425441687894  0.6388391744410310   T   T   T
  0.8024684039647340  0.0422032599416163  0.6390341685974587   T   T   T
  0.8770832689719001  0.6332853969354270  0.6278125452741113   T   T   T
  0.1160150222950102  0.3385491755008465  0.6259456181612549   T   T   T
  0.1100039642608337  0.7966956704896430  0.6270006692657726   T   T   T
  0.1687874547908998  0.4148543666502722  0.4728190065088802   T   T   T
  0.3333333333333357  0.5833333333333357  0.3817991009012260   F   F   F
  0.9173196314766012  0.9186049389108285  0.4721578056420167   T   T   T
  0.2545598985758405  0.4998367647792357  0.5602161384622921   T   T   T
  0.3333333333333357  0.8333333333333357  0.3817991009012260   F   F   F
  0.6689204933250047  0.9168611216089018  0.4764262022157783   T   T   T
  0.0084350869829764  0.5042713077753880  0.5795473933296116   T   T   T
  0.7589927770044622  0.7601927365190324  0.5755867056477192   T   T   T
  0.5833333333333357  0.0833333333333357  0.3817991009012260   F   F   F
  0.4191939895259031  0.1654354788886705  0.4764927604189126   T   T   T
  0.6705812733828773  0.6644328966481441  0.4753397671677275   T   T   T
  0.1679679344072808  0.1661556782076686  0.4710502459974480   T   T   T
  0.4222063430256927  0.4136599486000311  0.4719046551769149   T   T   T
  0.4220609115999406  0.6645078137354299  0.4775695625347824   T   T   T
  0.0833333333333357  0.3333333333333357  0.3817991009012260   F   F   F
  0.6701952912012067  0.4128934102446354  0.4739564663028088   T   T   T
  0.9167780744242208  0.1652240137736904  0.4747526848719562   T   T   T
  0.0011410024490933  0.0060470643638369  0.6372631636358481   T   T   T
  0.6704243477455429  0.1666669037716632  0.4712277817316672   T   T   T
  0.4184126971479952  0.9165399173266641  0.4729031874822052   T   T   T
  0.8333333333333357  0.0833333333333357  0.3817991009012260   F   F   F
  0.3333333333333357  0.0833333333333357  0.3817991009012260   F   F   F
  0.0011313794003201  0.2444576327256082  0.6371226528936438   T   T   T
  0.8333333333333357  0.5833333333333357  0.3817991009012260   F   F   F
 
  0.00000000E+00  0.00000000E+00  0.00000000E+00
  0.00000000E+00  0.00000000E+00  0.00000000E+00
  0.00000000E+00  0.00000000E+00  0.00000000E+00
  0.00000000E+00  0.00000000E+00  0.00000000E+00
  0.00000000E+00  0.00000000E+00  0.00000000E+00
  0.00000000E+00  0.00000000E+00  0.00000000E+00
  0.00000000E+00  0.00000000E+00  0.00000000E+00
  0.00000000E+00  0.00000000E+00  0.00000000E+00
  0.00000000E+00  0.00000000E+00  0.00000000E+00
  0.00000000E+00  0.00000000E+00  0.00000000E+00
  0.00000000E+00  0.00000000E+00  0.00000000E+00
  0.00000000E+00  0.00000000E+00  0.00000000E+00
  0.00000000E+00  0.00000000E+00  0.00000000E+00
  0.00000000E+00  0.00000000E+00  0.00000000E+00
  0.00000000E+00  0.00000000E+00  0.00000000E+00
  0.00000000E+00  0.00000000E+00  0.00000000E+00
  0.00000000E+00  0.00000000E+00  0.00000000E+00
  0.00000000E+00  0.00000000E+00  0.00000000E+00
  0.00000000E+00  0.00000000E+00  0.00000000E+00
  0.00000000E+00  0.00000000E+00  0.00000000E+00
  0.00000000E+00  0.00000000E+00  0.00000000E+00
  0.00000000E+00  0.00000000E+00  0.00000000E+00
  0.00000000E+00  0.00000000E+00  0.00000000E+00
  0.00000000E+00  0.00000000E+00  0.00000000E+00
  0.00000000E+00  0.00000000E+00  0.00000000E+00
  0.00000000E+00  0.00000000E+00  0.00000000E+00
  0.00000000E+00  0.00000000E+00  0.00000000E+00
  0.00000000E+00  0.00000000E+00  0.00000000E+00
  0.00000000E+00  0.00000000E+00  0.00000000E+00
  0.00000000E+00  0.00000000E+00  0.00000000E+00
  0.00000000E+00  0.00000000E+00  0.00000000E+00
  0.00000000E+00  0.00000000E+00  0.00000000E+00
  0.00000000E+00  0.00000000E+00  0.00000000E+00
  0.00000000E+00  0.00000000E+00  0.00000000E+00
  0.00000000E+00  0.00000000E+00  0.00000000E+00
  0.00000000E+00  0.00000000E+00  0.00000000E+00
  0.00000000E+00  0.00000000E+00  0.00000000E+00
  0.00000000E+00  0.00000000E+00  0.00000000E+00
  0.00000000E+00  0.00000000E+00  0.00000000E+00
  0.00000000E+00  0.00000000E+00  0.00000000E+00
  0.00000000E+00  0.00000000E+00  0.00000000E+00
  0.00000000E+00  0.00000000E+00  0.00000000E+00
  0.00000000E+00  0.00000000E+00  0.00000000E+00
  0.00000000E+00  0.00000000E+00  0.00000000E+00
  0.00000000E+00  0.00000000E+00  0.00000000E+00
  0.00000000E+00  0.00000000E+00  0.00000000E+00
  0.00000000E+00  0.00000000E+00  0.00000000E+00
  0.00000000E+00  0.00000000E+00  0.00000000E+00
  0.00000000E+00  0.00000000E+00  0.00000000E+00
  0.00000000E+00  0.00000000E+00  0.00000000E+00
  0.00000000E+00  0.00000000E+00  0.00000000E+00
  0.00000000E+00  0.00000000E+00  0.00000000E+00
  0.00000000E+00  0.00000000E+00  0.00000000E+00
  0.00000000E+00  0.00000000E+00  0.00000000E+00
  0.00000000E+00  0.00000000E+00  0.00000000E+00
  0.00000000E+00  0.00000000E+00  0.00000000E+00
