Au  O Pd                                
   1.00000000000000     
    11.0025815152626798    0.0000000000000000    0.0000000000000000
     5.5012907576313399    9.5285150994265617    0.0000000000000000
     0.0000000000000000    0.0000000000000000   26.1917850942952910
   Au   O    Pd
    24     8    24
Selective dynamics
Direct
  0.0833333333333357  0.0833333333333357  0.3817991009012260   F   F   F
  0.9162784295835490  0.6659127594410581  0.4793586186348363   T   T   T
  0.0833333333333357  0.8333333333333357  0.3817991009012260   F   F   F
  0.0833333333333357  0.5833333333333357  0.3817991009012260   F   F   F
  0.9206834913904016  0.4070639615062585  0.4750272158840464   T   T   T
  0.0015900052936725  0.7544850475955585  0.5665223743499048   T   T   T
  0.7830489587490839  0.4314769644510990  0.5657704873855903   T   T   T
  0.2373338460790634  0.0143242188022869  0.5610865596570781   T   T   T
  0.8333333333333357  0.8333333333333357  0.3817991009012260   F   F   F
  0.8333333333333357  0.3333333333333357  0.3817991009012260   F   F   F
  0.7705997568660299  0.0162589213372068  0.5603673269770293   T   T   T
  0.5833333333333357  0.8333333333333357  0.3817991009012260   F   F   F
  0.4974940205583239  0.7577753216722285  0.5682493262883046   T   T   T
  0.5833333333333357  0.5833333333333357  0.3817991009012260   F   F   F
  0.5077643859898269  0.2517738655088210  0.5595174141330992   T   T   T
  0.5833333333333357  0.3333333333333357  0.3817991009012260   F   F   F
  0.5032408659539652  0.0122513430208521  0.5621025370924634   T   T   T
  0.2448127200237552  0.7633024368498081  0.5653652166209592   T   T   T
  0.1615017021323954  0.9257099195617093  0.4729080645774805   T   T   T
  0.7597644024420287  0.2467966016404200  0.6262996200738351   T   T   T
  0.1711517810919571  0.6671912760679481  0.4721665567843649   T   T   T
  0.2517198687341599  0.2530752570340616  0.5576256170376257   T   T   T
  0.3333333333333357  0.3333333333333357  0.3817991009012260   F   F   F
  0.4851317458832302  0.5101085037269601  0.5713669651863190   T   T   T
  0.5392575502205096  0.3470743992861116  0.6248279952973165   T   T   T
  0.1571957008102931  0.0468910907132837  0.6380696971896209   T   T   T
  0.5844802804772857  0.8563782318607048  0.6168102542210744   T   T   T
  0.6146659299951878  0.5656635344048021  0.6131701657492574   T   T   T
  0.8111881467297104  0.0401195252340444  0.6405975615642409   T   T   T
  0.8637188908858021  0.6138206050852952  0.6205793454156646   T   T   T
  0.1212332925056405  0.3420015844102243  0.6203918556288989   T   T   T
  0.1074542473737216  0.8017777452180681  0.6271528210596374   T   T   T
  0.1670202222513286  0.4164092884830848  0.4708006296334621   T   T   T
  0.3333333333333357  0.5833333333333357  0.3817991009012260   F   F   F
  0.9188267518082486  0.9239828309667276  0.4722969830103272   T   T   T
  0.2492918448205463  0.5031002767356068  0.5581882593031732   T   T   T
  0.3333333333333357  0.8333333333333357  0.3817991009012260   F   F   F
  0.6715899525416433  0.9183660009314930  0.4747900487427316   T   T   T
  0.0013350247978328  0.4988117535900795  0.5710081175659475   T   T   T
  0.7568771520724963  0.7579139497493679  0.5718460677960245   T   T   T
  0.5833333333333357  0.0833333333333357  0.3817991009012260   F   F   F
  0.4219092500915403  0.1667486889478281  0.4738336355098307   T   T   T
  0.6698308729100021  0.6646313459117014  0.4767744132263264   T   T   T
  0.1658743470610493  0.1674748054593805  0.4700174977564639   T   T   T
  0.4220652611404910  0.4161598767714123  0.4714177143886784   T   T   T
  0.4213514260697060  0.6665863654416606  0.4783228096557024   T   T   T
  0.0833333333333357  0.3333333333333357  0.3817991009012260   F   F   F
  0.6695195665269011  0.4120858797978358  0.4740452884319343   T   T   T
  0.9189024635729907  0.1680715335559660  0.5174158851386601   T   T   T
  0.0004684571872015  0.0121183517945275  0.6352966724911131   T   T   T
  0.6772990173750768  0.1673201588195270  0.4705331346411509   T   T   T
  0.4184246137111695  0.9172050390884889  0.4735456270123619   T   T   T
  0.8333333333333357  0.0833333333333357  0.3817991009012260   F   F   F
  0.3333333333333357  0.0833333333333357  0.3817991009012260   F   F   F
  0.0105149688596489  0.2428624687818828  0.6207808047090140   T   T   T
  0.8333333333333357  0.5833333333333357  0.3817991009012260   F   F   F
 
  0.00000000E+00  0.00000000E+00  0.00000000E+00
  0.00000000E+00  0.00000000E+00  0.00000000E+00
  0.00000000E+00  0.00000000E+00  0.00000000E+00
  0.00000000E+00  0.00000000E+00  0.00000000E+00
  0.00000000E+00  0.00000000E+00  0.00000000E+00
  0.00000000E+00  0.00000000E+00  0.00000000E+00
  0.00000000E+00  0.00000000E+00  0.00000000E+00
  0.00000000E+00  0.00000000E+00  0.00000000E+00
  0.00000000E+00  0.00000000E+00  0.00000000E+00
  0.00000000E+00  0.00000000E+00  0.00000000E+00
  0.00000000E+00  0.00000000E+00  0.00000000E+00
  0.00000000E+00  0.00000000E+00  0.00000000E+00
  0.00000000E+00  0.00000000E+00  0.00000000E+00
  0.00000000E+00  0.00000000E+00  0.00000000E+00
  0.00000000E+00  0.00000000E+00  0.00000000E+00
  0.00000000E+00  0.00000000E+00  0.00000000E+00
  0.00000000E+00  0.00000000E+00  0.00000000E+00
  0.00000000E+00  0.00000000E+00  0.00000000E+00
  0.00000000E+00  0.00000000E+00  0.00000000E+00
  0.00000000E+00  0.00000000E+00  0.00000000E+00
  0.00000000E+00  0.00000000E+00  0.00000000E+00
  0.00000000E+00  0.00000000E+00  0.00000000E+00
  0.00000000E+00  0.00000000E+00  0.00000000E+00
  0.00000000E+00  0.00000000E+00  0.00000000E+00
  0.00000000E+00  0.00000000E+00  0.00000000E+00
  0.00000000E+00  0.00000000E+00  0.00000000E+00
  0.00000000E+00  0.00000000E+00  0.00000000E+00
  0.00000000E+00  0.00000000E+00  0.00000000E+00
  0.00000000E+00  0.00000000E+00  0.00000000E+00
  0.00000000E+00  0.00000000E+00  0.00000000E+00
  0.00000000E+00  0.00000000E+00  0.00000000E+00
  0.00000000E+00  0.00000000E+00  0.00000000E+00
  0.00000000E+00  0.00000000E+00  0.00000000E+00
  0.00000000E+00  0.00000000E+00  0.00000000E+00
  0.00000000E+00  0.00000000E+00  0.00000000E+00
  0.00000000E+00  0.00000000E+00  0.00000000E+00
  0.00000000E+00  0.00000000E+00  0.00000000E+00
  0.00000000E+00  0.00000000E+00  0.00000000E+00
  0.00000000E+00  0.00000000E+00  0.00000000E+00
  0.00000000E+00  0.00000000E+00  0.00000000E+00
  0.00000000E+00  0.00000000E+00  0.00000000E+00
  0.00000000E+00  0.00000000E+00  0.00000000E+00
  0.00000000E+00  0.00000000E+00  0.00000000E+00
  0.00000000E+00  0.00000000E+00  0.00000000E+00
  0.00000000E+00  0.00000000E+00  0.00000000E+00
  0.00000000E+00  0.00000000E+00  0.00000000E+00
  0.00000000E+00  0.00000000E+00  0.00000000E+00
  0.00000000E+00  0.00000000E+00  0.00000000E+00
  0.00000000E+00  0.00000000E+00  0.00000000E+00
  0.00000000E+00  0.00000000E+00  0.00000000E+00
  0.00000000E+00  0.00000000E+00  0.00000000E+00
  0.00000000E+00  0.00000000E+00  0.00000000E+00
  0.00000000E+00  0.00000000E+00  0.00000000E+00
  0.00000000E+00  0.00000000E+00  0.00000000E+00
  0.00000000E+00  0.00000000E+00  0.00000000E+00
  0.00000000E+00  0.00000000E+00  0.00000000E+00
