Au Pd                                   
   1.00000000000000     
    11.0025815152626798    0.0000000000000000    0.0000000000000000
     5.5012907576313399    9.5285150994265617    0.0000000000000000
     0.0000000000000000    0.0000000000000000   24.4917850942952882
   Au   Pd
    24    24
Direct
  0.3325085493447781  0.3335388342783910  0.3985638575015074
  0.5856557263266143  0.8332240084491525  0.3928935691302686
  0.5851735151736841  0.3334800970585203  0.3956100782804577
  0.4991797747267582 -0.0008365260517584  0.6044607712208427
  0.4169117042139333  0.9159646756234459  0.5000805565000545
  0.6671646991923822  0.9158509913277429  0.5002005066004430
  0.1667328566516527  0.9166304032499865  0.4998814954837589
  0.3317386389651916  0.8338598647175822  0.3942787157386328
  0.8356897758761580  0.0822546720131450  0.3958519541665675
  0.1682887338975315  0.6650615033881909  0.5010420049346986
  0.3324276282871996  0.5845779935551069  0.3977988715580510
  0.6656115839626559  0.1677664773014694  0.4998517957850833
  0.1675362681477259  0.4159147806351379  0.5013002939559122
  0.4987570999687432  0.2505623307550669  0.6018101097005707
  0.4988449646878135  0.5021190472317159  0.6008442102565771
  0.1659553776064618  0.1673413567781595  0.5010250976746488
  0.3324022681527325  0.0847167673961172  0.3965682842221370
 -0.0005664182062364  0.7516087138425653  0.6052417080684063
  0.9168259225127905  0.9164514406341416  0.5005852611287827
 -0.0011899985380136  0.5003323226112003  0.6035185002482789
  0.6671562128305963  0.4165132557458543  0.4995314287372657
 -0.0011448897721106  0.2483674591313159  0.6034473587098738
  0.8357504653722605  0.5818049568580476  0.3992106153497509
  0.6678110509745936  0.6651787879024065  0.4997544880253041
  0.8346809542820860  0.3331449559430395  0.4029398995914802
  0.7507027505020611  0.2488560144661952  0.5976105641821625
  0.4992541751220621  0.7503030359838699  0.5969516484502009
  0.7493171219839574  0.5004730317684387  0.5980258832912647
  0.8345379023409164  0.8331044838150435  0.4027300697523876
  0.7505862400917739  0.0001581097613336  0.5989041346787589
  0.0816715254696799  0.0855180356740223  0.4025576181815593
  0.2504749749484190  0.7513757500868350  0.5978031086868025
  0.5842012759451409  0.5833491919087487  0.4012536193539178
  0.4171595545005646  0.4163398175619629  0.4995686044542688
  0.4169189363872606  0.1668738054403246  0.5008610821396913
  0.5845518497233231  0.0826120268580850  0.4022084477858354
  0.2498445082763958  0.5005647510193265  0.5987418967696562
  0.2499675564153795  0.2492549512301374  0.5990823989205976
  0.2494072807144064 -0.0014728439843881  0.5987575990463484
  0.0821515270830057  0.8335397040140939  0.4019864707014544
  0.9174964484070965  0.6643730801768001  0.5018254001998392
  0.0813084776327457  0.5852210410615224  0.4038930007954060
  0.9171420994111417  0.4163514374389140  0.5016295872759887
  0.0817098630733414  0.3338310571900835  0.4038540230869502
 -0.0004083956690171  0.0000943328801826  0.5981615508556575
  0.9163744104637428  0.1684241454036119  0.5001181630246904
  0.4169008005422459  0.6654995378307169  0.4990530059174066
  0.7488266519963735  0.7499263320383958  0.5981306898798002
 
  0.00000000E+00  0.00000000E+00  0.00000000E+00
  0.00000000E+00  0.00000000E+00  0.00000000E+00
  0.00000000E+00  0.00000000E+00  0.00000000E+00
  0.00000000E+00  0.00000000E+00  0.00000000E+00
  0.00000000E+00  0.00000000E+00  0.00000000E+00
  0.00000000E+00  0.00000000E+00  0.00000000E+00
  0.00000000E+00  0.00000000E+00  0.00000000E+00
  0.00000000E+00  0.00000000E+00  0.00000000E+00
  0.00000000E+00  0.00000000E+00  0.00000000E+00
  0.00000000E+00  0.00000000E+00  0.00000000E+00
  0.00000000E+00  0.00000000E+00  0.00000000E+00
  0.00000000E+00  0.00000000E+00  0.00000000E+00
  0.00000000E+00  0.00000000E+00  0.00000000E+00
  0.00000000E+00  0.00000000E+00  0.00000000E+00
  0.00000000E+00  0.00000000E+00  0.00000000E+00
  0.00000000E+00  0.00000000E+00  0.00000000E+00
  0.00000000E+00  0.00000000E+00  0.00000000E+00
  0.00000000E+00  0.00000000E+00  0.00000000E+00
  0.00000000E+00  0.00000000E+00  0.00000000E+00
  0.00000000E+00  0.00000000E+00  0.00000000E+00
  0.00000000E+00  0.00000000E+00  0.00000000E+00
  0.00000000E+00  0.00000000E+00  0.00000000E+00
  0.00000000E+00  0.00000000E+00  0.00000000E+00
  0.00000000E+00  0.00000000E+00  0.00000000E+00
  0.00000000E+00  0.00000000E+00  0.00000000E+00
  0.00000000E+00  0.00000000E+00  0.00000000E+00
  0.00000000E+00  0.00000000E+00  0.00000000E+00
  0.00000000E+00  0.00000000E+00  0.00000000E+00
  0.00000000E+00  0.00000000E+00  0.00000000E+00
  0.00000000E+00  0.00000000E+00  0.00000000E+00
  0.00000000E+00  0.00000000E+00  0.00000000E+00
  0.00000000E+00  0.00000000E+00  0.00000000E+00
  0.00000000E+00  0.00000000E+00  0.00000000E+00
  0.00000000E+00  0.00000000E+00  0.00000000E+00
  0.00000000E+00  0.00000000E+00  0.00000000E+00
  0.00000000E+00  0.00000000E+00  0.00000000E+00
  0.00000000E+00  0.00000000E+00  0.00000000E+00
  0.00000000E+00  0.00000000E+00  0.00000000E+00
  0.00000000E+00  0.00000000E+00  0.00000000E+00
  0.00000000E+00  0.00000000E+00  0.00000000E+00
  0.00000000E+00  0.00000000E+00  0.00000000E+00
  0.00000000E+00  0.00000000E+00  0.00000000E+00
  0.00000000E+00  0.00000000E+00  0.00000000E+00
  0.00000000E+00  0.00000000E+00  0.00000000E+00
  0.00000000E+00  0.00000000E+00  0.00000000E+00
  0.00000000E+00  0.00000000E+00  0.00000000E+00
  0.00000000E+00  0.00000000E+00  0.00000000E+00
  0.00000000E+00  0.00000000E+00  0.00000000E+00
