Au Pd                                   
   1.00000000000000     
    11.0025815152626798    0.0000000000000000    0.0000000000000000
     5.5012907576313399    9.5285150994265617    0.0000000000000000
     0.0000000000000000    0.0000000000000000   24.4917850942952882
   Au   Pd
    24    24
Direct
  0.0855930892060844  0.0810791614235212  0.3998497699903090
  0.5819302655095966  0.0841446937819675  0.3962581769103518
  0.4165417528994588  0.1647552203824282  0.5003039287640428
  0.4165796480812784  0.4167948282654578  0.4998472052594269
  0.4998417639372308  0.2505142786555470  0.6055143436852950
  0.5817260573624038  0.5839103544234282  0.3934541039576832
  0.4148520659841168  0.6694300234820542  0.5005105042748981
  0.4148459489558045  0.9179714991583892  0.5001938831393260
  0.4969170165148529  0.7520486309378466  0.6073792233742098
  0.6700051523373496  0.1634457374503282  0.5001854198409103
  0.8342702498261997  0.3310213473686146  0.3962934788354353
  0.6683247705977912  0.4153558111653723  0.5002068057716338
  0.8352619813430493  0.5827876312895035  0.3929311836732142
  0.6665233259961071  0.6685310455430383  0.4995984821797319
  0.7495390268587362  0.4996934188416353  0.6060581158267061
  0.8345105178246125  0.8340549575047485  0.3976887573731411
  0.1651772327668660  0.6701802370956658  0.5000780533718938
  0.3308899690314766  0.5833026757196266  0.3930627422084999
  0.7506228897389933  0.7525845858597082  0.6048994736388681
  0.1665162546688682  0.4152869851505116  0.5002046023278770
  0.0002639230535271 -0.0018028785365417  0.6013030861771869
  0.9182762361029354  0.4144325247474696  0.4999278750933390
  0.0026054834272878  0.2488959958819412  0.6026742125095188
  0.9156215631723623  0.6694248364849759  0.5005109317248612
  0.9188304092919957  0.1650404634334829  0.5004356794411841
  0.0863727744837602  0.3323897107868471  0.4017535429270467
  0.7497497001225409  0.2498657367121682  0.5980981755332881
  0.0841665616356052  0.5822600225096694  0.4019354328251106
  0.7491674708028537 -0.0000784286928308  0.5971358953108150
  0.8340900808446350  0.0825205323135515  0.4032236690527240
  0.0016604553940412  0.5000134291370339  0.5985539892630405
  0.0835796282378496  0.8333381760515136  0.4032329945741546
  0.2504856958636648  0.2503101565245568  0.5980328216967410
  0.5819618301483644  0.8339863169076427  0.4020504597028845
  0.9165784185563348  0.9178164318150756  0.5004410486064399
  0.0004783360832961  0.7498087376185414  0.5982372858771811
  0.3334023054049189  0.0829104155642494  0.4022542286017316
  0.1648782845900614  0.1653001355179669  0.5000188256150360
  0.5824217686862153  0.3326820330234163  0.4015715457761564
  0.4993540091422787  0.0009726778882617  0.5981526621167066
  0.2512303697967445 -0.0003547232531757  0.5970317671439170
  0.3323030512982961  0.3328200558957754  0.4016652706203328
  0.6676751008559791  0.9167834288828660  0.4995045168481344
  0.1629559470333595  0.9201804167499001  0.5004302712488400
  0.3340678831649677  0.8327360702723511  0.4024843897166723
  0.2488899094840218  0.5012782438547025  0.5982764974888524
  0.4986865541187144  0.5006474112247035  0.5983767858638144
  0.2497772697625116  0.7489289471844932  0.5981678842408364
 
  0.00000000E+00  0.00000000E+00  0.00000000E+00
  0.00000000E+00  0.00000000E+00  0.00000000E+00
  0.00000000E+00  0.00000000E+00  0.00000000E+00
  0.00000000E+00  0.00000000E+00  0.00000000E+00
  0.00000000E+00  0.00000000E+00  0.00000000E+00
  0.00000000E+00  0.00000000E+00  0.00000000E+00
  0.00000000E+00  0.00000000E+00  0.00000000E+00
  0.00000000E+00  0.00000000E+00  0.00000000E+00
  0.00000000E+00  0.00000000E+00  0.00000000E+00
  0.00000000E+00  0.00000000E+00  0.00000000E+00
  0.00000000E+00  0.00000000E+00  0.00000000E+00
  0.00000000E+00  0.00000000E+00  0.00000000E+00
  0.00000000E+00  0.00000000E+00  0.00000000E+00
  0.00000000E+00  0.00000000E+00  0.00000000E+00
  0.00000000E+00  0.00000000E+00  0.00000000E+00
  0.00000000E+00  0.00000000E+00  0.00000000E+00
  0.00000000E+00  0.00000000E+00  0.00000000E+00
  0.00000000E+00  0.00000000E+00  0.00000000E+00
  0.00000000E+00  0.00000000E+00  0.00000000E+00
  0.00000000E+00  0.00000000E+00  0.00000000E+00
  0.00000000E+00  0.00000000E+00  0.00000000E+00
  0.00000000E+00  0.00000000E+00  0.00000000E+00
  0.00000000E+00  0.00000000E+00  0.00000000E+00
  0.00000000E+00  0.00000000E+00  0.00000000E+00
  0.00000000E+00  0.00000000E+00  0.00000000E+00
  0.00000000E+00  0.00000000E+00  0.00000000E+00
  0.00000000E+00  0.00000000E+00  0.00000000E+00
  0.00000000E+00  0.00000000E+00  0.00000000E+00
  0.00000000E+00  0.00000000E+00  0.00000000E+00
  0.00000000E+00  0.00000000E+00  0.00000000E+00
  0.00000000E+00  0.00000000E+00  0.00000000E+00
  0.00000000E+00  0.00000000E+00  0.00000000E+00
  0.00000000E+00  0.00000000E+00  0.00000000E+00
  0.00000000E+00  0.00000000E+00  0.00000000E+00
  0.00000000E+00  0.00000000E+00  0.00000000E+00
  0.00000000E+00  0.00000000E+00  0.00000000E+00
  0.00000000E+00  0.00000000E+00  0.00000000E+00
  0.00000000E+00  0.00000000E+00  0.00000000E+00
  0.00000000E+00  0.00000000E+00  0.00000000E+00
  0.00000000E+00  0.00000000E+00  0.00000000E+00
  0.00000000E+00  0.00000000E+00  0.00000000E+00
  0.00000000E+00  0.00000000E+00  0.00000000E+00
  0.00000000E+00  0.00000000E+00  0.00000000E+00
  0.00000000E+00  0.00000000E+00  0.00000000E+00
  0.00000000E+00  0.00000000E+00  0.00000000E+00
  0.00000000E+00  0.00000000E+00  0.00000000E+00
  0.00000000E+00  0.00000000E+00  0.00000000E+00
  0.00000000E+00  0.00000000E+00  0.00000000E+00
