Au  O Pd                                
   1.00000000000000     
    11.0025815152626798    0.0000000000000000    0.0000000000000000
     5.5012907576313399    9.5285150994265617    0.0000000000000000
     0.0000000000000000    0.0000000000000000   26.1917850942952910
   Au   O    Pd
    24     8    24
Selective dynamics
Direct
  0.5833333333333357  0.8333333333333357  0.3817991009012260   F   F   F
  0.0833333333333357  0.8333333333333357  0.3817991009012260   F   F   F
  0.9129907540864088  0.1726376434576128  0.4728930407356944   T   T   T
 -0.0064774059890105  0.0164311361108705  0.5582464142687471   T   T   T
  0.7911010655852300  0.4583220586322642  0.6141686287747911   T   T   T
  0.9115055445504590  0.4222654488312644  0.4729116059782883   T   T   T
  0.6561021269441597  0.6611544791140034  0.4851907924886692   T   T   T
  0.6685708989382491  0.4133913373876028  0.5222299093349007   T   T   T
  0.8333333333333357  0.3333333333333357  0.3817991009012260   F   F   F
  0.9145291514141257  0.6735396437411540  0.4718270534074602   T   T   T
  0.0220135154218812  0.5078020535350500  0.5628748900963572   T   T   T
  0.3333333333333357  0.8333333333333357  0.3817991009012260   F   F   F
  0.7395892613930567  0.0239124267775255  0.5573697563191156   T   T   T
  0.4851023312256221  0.5212490965815854  0.6424215067937967   T   T   T
  0.3333333333333357  0.0833333333333357  0.3817991009012260   F   F   F
  0.4010552530088443  0.6842253232237471  0.5199733324998583   T   T   T
  0.2487095237860800  0.0014472852400777  0.5633803212468648   T   T   T
  0.5833333333333357  0.5833333333333357  0.3817991009012260   F   F   F
  0.1746837856146291  0.4209158967839585  0.4728464303048425   T   T   T
  0.2563181145995251  0.2597964723869586  0.5674725101166045   T   T   T
  0.5150407393641306  0.2868007641591679  0.5640597167518946   T   T   T
  0.4252882461765610  0.4402203201761536  0.4724915034702485   T   T   T
  0.5833333333333357  0.3333333333333357  0.3817991009012260   F   F   F
  0.2532392727992810  0.7479830245330709  0.6231413835358974   T   T   T
  0.3695450583944418  0.4330842829630386  0.6266105881125641   T   T   T
  0.0378628856172241  0.8988631345196378  0.6246910997978660   T   T   T
  0.4484368503099745  0.1440994192689175  0.6089742141196470   T   T   T
  0.8044612837994488  0.8630002648163874  0.6117804103305541   T   T   T
  0.3312095463023499  0.8834808334485394  0.6357780793396057   T   T   T
  0.8583211277733095  0.6023038772367587  0.6159814861826410   T   T   T
  0.6587531400587905  0.3316014590173330  0.6651349555890599   T   T   T
  0.5985457659604767  0.6158928030367894  0.6520021255400434   T   T   T
  0.3333333333333357  0.5833333333333357  0.3817991009012260   F   F   F
  0.0833333333333357  0.0833333333333357  0.3817991009012260   F   F   F
  0.0094632729226742  0.7439290143683880  0.6005738666663594   T   T   T
  0.4957438102707142  0.0037367355550805  0.5558457042800861   T   T   T
  0.4219632301248293  0.1713605225204611  0.4706259803297753   T   T   T
  0.5833333333333357  0.0833333333333357  0.3817991009012260   F   F   F
  0.7434033209773011  0.7611883289624404  0.5642740898621503   T   T   T
  0.2599055301429802  0.5421165492369403  0.5653333039308565   T   T   T
  0.1716355173832775  0.1669028832739788  0.4750461855114266   T   T   T
  0.5167809004683038  0.7769403799979299  0.6019604996887453   T   T   T
  0.9156996216360631  0.9196574706945854  0.4704856660692274   T   T   T
  0.4196844399302425  0.9108301000164990  0.4744321782896013   T   T   T
  0.8333333333333357  0.0833333333333357  0.3817991009012260   F   F   F
  0.6647855940032210  0.1767682974524545  0.4725218146754117   T   T   T
  0.0833333333333357  0.5833333333333357  0.3817991009012260   F   F   F
  0.7743438097846382  0.2317751980182429  0.6095332478429675   T   T   T
  0.8333333333333357  0.5833333333333357  0.3817991009012260   F   F   F
 -0.0043868745501047  0.2664643937535023  0.5611731788025058   T   T   T
  0.0833333333333357  0.3333333333333357  0.3817991009012260   F   F   F
  0.8333333333333357  0.8333333333333357  0.3817991009012260   F   F   F
  0.6662589514291506  0.9169237706234730  0.4705444179781231   T   T   T
  0.1713269009665652  0.9150085519002810  0.4717639679140765   T   T   T
  0.3333333333333357  0.3333333333333357  0.3817991009012260   F   F   F
  0.1654040203880967  0.6776997933615468  0.4771499976498337   T   T   T
 
  0.00000000E+00  0.00000000E+00  0.00000000E+00
  0.00000000E+00  0.00000000E+00  0.00000000E+00
  0.00000000E+00  0.00000000E+00  0.00000000E+00
  0.00000000E+00  0.00000000E+00  0.00000000E+00
  0.00000000E+00  0.00000000E+00  0.00000000E+00
  0.00000000E+00  0.00000000E+00  0.00000000E+00
  0.00000000E+00  0.00000000E+00  0.00000000E+00
  0.00000000E+00  0.00000000E+00  0.00000000E+00
  0.00000000E+00  0.00000000E+00  0.00000000E+00
  0.00000000E+00  0.00000000E+00  0.00000000E+00
  0.00000000E+00  0.00000000E+00  0.00000000E+00
  0.00000000E+00  0.00000000E+00  0.00000000E+00
  0.00000000E+00  0.00000000E+00  0.00000000E+00
  0.00000000E+00  0.00000000E+00  0.00000000E+00
  0.00000000E+00  0.00000000E+00  0.00000000E+00
  0.00000000E+00  0.00000000E+00  0.00000000E+00
  0.00000000E+00  0.00000000E+00  0.00000000E+00
  0.00000000E+00  0.00000000E+00  0.00000000E+00
  0.00000000E+00  0.00000000E+00  0.00000000E+00
  0.00000000E+00  0.00000000E+00  0.00000000E+00
  0.00000000E+00  0.00000000E+00  0.00000000E+00
  0.00000000E+00  0.00000000E+00  0.00000000E+00
  0.00000000E+00  0.00000000E+00  0.00000000E+00
  0.00000000E+00  0.00000000E+00  0.00000000E+00
  0.00000000E+00  0.00000000E+00  0.00000000E+00
  0.00000000E+00  0.00000000E+00  0.00000000E+00
  0.00000000E+00  0.00000000E+00  0.00000000E+00
  0.00000000E+00  0.00000000E+00  0.00000000E+00
  0.00000000E+00  0.00000000E+00  0.00000000E+00
  0.00000000E+00  0.00000000E+00  0.00000000E+00
  0.00000000E+00  0.00000000E+00  0.00000000E+00
  0.00000000E+00  0.00000000E+00  0.00000000E+00
  0.00000000E+00  0.00000000E+00  0.00000000E+00
  0.00000000E+00  0.00000000E+00  0.00000000E+00
  0.00000000E+00  0.00000000E+00  0.00000000E+00
  0.00000000E+00  0.00000000E+00  0.00000000E+00
  0.00000000E+00  0.00000000E+00  0.00000000E+00
  0.00000000E+00  0.00000000E+00  0.00000000E+00
  0.00000000E+00  0.00000000E+00  0.00000000E+00
  0.00000000E+00  0.00000000E+00  0.00000000E+00
  0.00000000E+00  0.00000000E+00  0.00000000E+00
  0.00000000E+00  0.00000000E+00  0.00000000E+00
  0.00000000E+00  0.00000000E+00  0.00000000E+00
  0.00000000E+00  0.00000000E+00  0.00000000E+00
  0.00000000E+00  0.00000000E+00  0.00000000E+00
  0.00000000E+00  0.00000000E+00  0.00000000E+00
  0.00000000E+00  0.00000000E+00  0.00000000E+00
  0.00000000E+00  0.00000000E+00  0.00000000E+00
  0.00000000E+00  0.00000000E+00  0.00000000E+00
  0.00000000E+00  0.00000000E+00  0.00000000E+00
  0.00000000E+00  0.00000000E+00  0.00000000E+00
  0.00000000E+00  0.00000000E+00  0.00000000E+00
  0.00000000E+00  0.00000000E+00  0.00000000E+00
  0.00000000E+00  0.00000000E+00  0.00000000E+00
  0.00000000E+00  0.00000000E+00  0.00000000E+00
  0.00000000E+00  0.00000000E+00  0.00000000E+00
