Au Pd                                   
   1.00000000000000     
    11.0025815152626798    0.0000000000000000    0.0000000000000000
     5.5012907576313399    9.5285150994265617    0.0000000000000000
     0.0000000000000000    0.0000000000000000   24.4917850942952882
   Au   Pd
    24    24
Direct
  0.2483944558640250  0.7501820491315450  0.6028796516167089
  0.5826001107571974  0.8330466412625644  0.3933008422982454
  0.4164185728698864  0.9138976296270918  0.5001804268392035
  0.4159831143011049  0.1666367840289605  0.4997332936268671
  0.5850380976371508  0.0849230931741721  0.3916502807754950
  0.6683595372506083  0.9126115998161242  0.4980822069649784
  0.3312837581126569  0.8352788938205685  0.3996404098034336
  0.6673170786780458  0.1670714498563792  0.4989101064844725
  0.1682741993980133  0.6661500409291633  0.4998310544515556
  0.3365749182284064  0.5826689195314475  0.3976563143702433
  0.2502628066352804  0.2509728001585324  0.6061599496940863
  0.1673958603151415  0.4152932255515814  0.4999681406854142
  0.4977968694153327  0.4992794660961599  0.6018189880112430
  0.2494186131305084  0.0014992997919490  0.6048477034253497
  0.3346139751796691  0.3320668011282467  0.3938067237688288
  0.6656829697908979  0.4173772185123596  0.5006429121930821
  0.9182754649596134  0.9158122725055911  0.4999006636890144
 -0.0025859424132264  0.5044963109509730  0.6033923764748691
  0.8341152206139858  0.5799049079991584  0.3977176337341083
  0.0838024943723030  0.5830889859828531  0.3943536235462050
  0.9176871870433086  0.4144022146402666  0.5015574195680642
  0.7471767474105615  0.5029386399216088  0.6050312495929264
 -0.0051731942512855  0.0032323135363569  0.6046504940105903
  0.8354747705976553  0.8348958089701546  0.3935082794151594
  0.8346427618815936  0.3310590407259261  0.4045436686445317
  0.7480191569247907  0.2506267784928176  0.5982427701516533
  0.8366635481989645  0.0844215777429121  0.4026194191550849
  0.6677930251022228  0.6647751760170586  0.4993899579778293
  0.4997803601204255  0.7516551146514474  0.5968354991842582
  0.7466860162214968  0.0013610355830653  0.5969598107863039
  0.4165365340988751  0.6662045919844475  0.5006253841084614
  0.0831112343684012  0.0851943195974990  0.4072638873552840
  0.5000948417613080  0.2489855375152025  0.5964312285950524
  0.4168868917475576  0.4167344436883777  0.4984780472010700
  0.5869536124953102  0.3327257185515412  0.4013350036556171
  0.5007789333432259 -0.0003152886835219  0.5973252088781457
  0.1671256968581891  0.9172637032881192  0.5032760849719442
  0.2489363517875431  0.4997982522891545  0.5969195344949492
  0.1672356587113158  0.1643247053008741  0.5033031969895071
  0.3320420258663359  0.0847777783825219  0.4033077698355190
 -0.0039118488321100  0.7518835146761916  0.5968086223044627
  0.0836987403312471  0.8358259913502448  0.4034184283767480
  0.9172151636446698  0.6647487168970314  0.4979507457116069
 -0.0027533548383293  0.2519695252313236  0.5999268372725717
  0.0848751875386528  0.3300521899566690  0.4040356705431167
  0.9205013907379397  0.1637276469538176  0.5024884066948134
  0.5849451704973249  0.5818988472383527  0.4037378207369084
  0.7479552155362094  0.7525737156451195  0.5955562513344159
 
  0.00000000E+00  0.00000000E+00  0.00000000E+00
  0.00000000E+00  0.00000000E+00  0.00000000E+00
  0.00000000E+00  0.00000000E+00  0.00000000E+00
  0.00000000E+00  0.00000000E+00  0.00000000E+00
  0.00000000E+00  0.00000000E+00  0.00000000E+00
  0.00000000E+00  0.00000000E+00  0.00000000E+00
  0.00000000E+00  0.00000000E+00  0.00000000E+00
  0.00000000E+00  0.00000000E+00  0.00000000E+00
  0.00000000E+00  0.00000000E+00  0.00000000E+00
  0.00000000E+00  0.00000000E+00  0.00000000E+00
  0.00000000E+00  0.00000000E+00  0.00000000E+00
  0.00000000E+00  0.00000000E+00  0.00000000E+00
  0.00000000E+00  0.00000000E+00  0.00000000E+00
  0.00000000E+00  0.00000000E+00  0.00000000E+00
  0.00000000E+00  0.00000000E+00  0.00000000E+00
  0.00000000E+00  0.00000000E+00  0.00000000E+00
  0.00000000E+00  0.00000000E+00  0.00000000E+00
  0.00000000E+00  0.00000000E+00  0.00000000E+00
  0.00000000E+00  0.00000000E+00  0.00000000E+00
  0.00000000E+00  0.00000000E+00  0.00000000E+00
  0.00000000E+00  0.00000000E+00  0.00000000E+00
  0.00000000E+00  0.00000000E+00  0.00000000E+00
  0.00000000E+00  0.00000000E+00  0.00000000E+00
  0.00000000E+00  0.00000000E+00  0.00000000E+00
  0.00000000E+00  0.00000000E+00  0.00000000E+00
  0.00000000E+00  0.00000000E+00  0.00000000E+00
  0.00000000E+00  0.00000000E+00  0.00000000E+00
  0.00000000E+00  0.00000000E+00  0.00000000E+00
  0.00000000E+00  0.00000000E+00  0.00000000E+00
  0.00000000E+00  0.00000000E+00  0.00000000E+00
  0.00000000E+00  0.00000000E+00  0.00000000E+00
  0.00000000E+00  0.00000000E+00  0.00000000E+00
  0.00000000E+00  0.00000000E+00  0.00000000E+00
  0.00000000E+00  0.00000000E+00  0.00000000E+00
  0.00000000E+00  0.00000000E+00  0.00000000E+00
  0.00000000E+00  0.00000000E+00  0.00000000E+00
  0.00000000E+00  0.00000000E+00  0.00000000E+00
  0.00000000E+00  0.00000000E+00  0.00000000E+00
  0.00000000E+00  0.00000000E+00  0.00000000E+00
  0.00000000E+00  0.00000000E+00  0.00000000E+00
  0.00000000E+00  0.00000000E+00  0.00000000E+00
  0.00000000E+00  0.00000000E+00  0.00000000E+00
  0.00000000E+00  0.00000000E+00  0.00000000E+00
  0.00000000E+00  0.00000000E+00  0.00000000E+00
  0.00000000E+00  0.00000000E+00  0.00000000E+00
  0.00000000E+00  0.00000000E+00  0.00000000E+00
  0.00000000E+00  0.00000000E+00  0.00000000E+00
  0.00000000E+00  0.00000000E+00  0.00000000E+00
