Au Pd                                   
   1.00000000000000     
    11.0025815152626798    0.0000000000000000    0.0000000000000000
     5.5012907576313399    9.5285150994265617    0.0000000000000000
     0.0000000000000000    0.0000000000000000   24.4917850942952882
   Au   Pd
    24    24
Direct
  0.0826901690959964  0.0824353188171242  0.3959817927645340
  0.8313348804279939  0.8338077173936403  0.3973456940963142
  0.8288991037810434  0.5840320722759020  0.3947629063785034
  0.7481554757619626  0.2531561207298860  0.6046776703041866
  0.8307373469838591  0.3338564719096984  0.3969273995683273
  0.7472407049316393  0.0021716093123366  0.6060963927734953
  0.6638948216944159  0.1676957729071862  0.5007070322006101
  0.5811424039003320  0.3364747181189446  0.3973012551144411
  0.5828638346457242  0.0816681957660484  0.3977899909569016
  0.1703546865175747  0.6646892567409932  0.5009996014984229
  0.3310448163907101  0.3342060380917276  0.3981026941800829
  0.1695302520709103  0.1653578201355926  0.4997234499824904
  0.2536490184875597  0.7504324774510219  0.6026661520867849
  0.0029765491830900  0.7497869605866931  0.6079103578346235
  0.9168822283452839  0.1671596548379037  0.5014229548566882
  0.9147647105241855  0.4188046520107124  0.5010162482645539
  0.0035477743869604  0.2476630665869319  0.6068101406504972
  0.0831329666874309  0.5819079519559848  0.3963404179873350
  0.3331504469557707  0.0801855859265862  0.3957090862436916
  0.9157696685561542  0.6663533939205202  0.5014449131670725
  0.0043936264486798  0.4975156588183589  0.6066001149776445
  0.7480054823229544  0.7501207455213481  0.6034786366577536
  0.0845262449083275  0.8329970168983931  0.3962743125879019
  0.9173597905772862  0.9158157104696839  0.5018137424728644
  0.1695752762486316  0.9149939890583128  0.4996726704978814
  0.2530803513773201 -0.0001820150184750  0.5958631421130666
  0.7502655273290121  0.5005238113524918  0.5976820654772987
  0.6645141843718601  0.6684863041723186  0.5008236662169540
  0.0018786625794843 -0.0000267064852856  0.5986642088443295
  0.0809661523940704  0.3332211059380040  0.4027079705358054
  0.6633865734707083  0.4198506676032986  0.5002435408993564
  0.1688264869228699  0.4163026807326093  0.4998278710923828
  0.2534081956468893  0.2492451987021105  0.5954159239657378
  0.8322777541202132  0.0832651518522555  0.4033512195527966
  0.5013135936474614  0.7500078840451787  0.5957724096437320
  0.4177767391949462  0.9159046075516032  0.4991408436771809
  0.5820458840451961  0.8319003792459372  0.4047887849711824
  0.5006487181245665  0.5004259782822464  0.5952743705588839
  0.4176722114575817  0.6676348777752809  0.5012206399308001
  0.3333143612365035  0.5851338941161885  0.4037243385705524
  0.4978831731964256  0.2517930214098673  0.5952800610003615
  0.4173308861091712  0.4162723777785521  0.4985816110829033
  0.4982036261270026  0.0009628293313975  0.5942528712063583
  0.4165019585204642  0.1661280980089969  0.4977153714451441
  0.2534423595253944  0.4972555807212229  0.5968126931309043
  0.6647141793954277  0.9161299457030062  0.5008716122836243
  0.3346854337830948  0.8307313450495540  0.4047686087867665
  0.5802407075898605  0.5857450058901097  0.4056405469102770
 
  0.00000000E+00  0.00000000E+00  0.00000000E+00
  0.00000000E+00  0.00000000E+00  0.00000000E+00
  0.00000000E+00  0.00000000E+00  0.00000000E+00
  0.00000000E+00  0.00000000E+00  0.00000000E+00
  0.00000000E+00  0.00000000E+00  0.00000000E+00
  0.00000000E+00  0.00000000E+00  0.00000000E+00
  0.00000000E+00  0.00000000E+00  0.00000000E+00
  0.00000000E+00  0.00000000E+00  0.00000000E+00
  0.00000000E+00  0.00000000E+00  0.00000000E+00
  0.00000000E+00  0.00000000E+00  0.00000000E+00
  0.00000000E+00  0.00000000E+00  0.00000000E+00
  0.00000000E+00  0.00000000E+00  0.00000000E+00
  0.00000000E+00  0.00000000E+00  0.00000000E+00
  0.00000000E+00  0.00000000E+00  0.00000000E+00
  0.00000000E+00  0.00000000E+00  0.00000000E+00
  0.00000000E+00  0.00000000E+00  0.00000000E+00
  0.00000000E+00  0.00000000E+00  0.00000000E+00
  0.00000000E+00  0.00000000E+00  0.00000000E+00
  0.00000000E+00  0.00000000E+00  0.00000000E+00
  0.00000000E+00  0.00000000E+00  0.00000000E+00
  0.00000000E+00  0.00000000E+00  0.00000000E+00
  0.00000000E+00  0.00000000E+00  0.00000000E+00
  0.00000000E+00  0.00000000E+00  0.00000000E+00
  0.00000000E+00  0.00000000E+00  0.00000000E+00
  0.00000000E+00  0.00000000E+00  0.00000000E+00
  0.00000000E+00  0.00000000E+00  0.00000000E+00
  0.00000000E+00  0.00000000E+00  0.00000000E+00
  0.00000000E+00  0.00000000E+00  0.00000000E+00
  0.00000000E+00  0.00000000E+00  0.00000000E+00
  0.00000000E+00  0.00000000E+00  0.00000000E+00
  0.00000000E+00  0.00000000E+00  0.00000000E+00
  0.00000000E+00  0.00000000E+00  0.00000000E+00
  0.00000000E+00  0.00000000E+00  0.00000000E+00
  0.00000000E+00  0.00000000E+00  0.00000000E+00
  0.00000000E+00  0.00000000E+00  0.00000000E+00
  0.00000000E+00  0.00000000E+00  0.00000000E+00
  0.00000000E+00  0.00000000E+00  0.00000000E+00
  0.00000000E+00  0.00000000E+00  0.00000000E+00
  0.00000000E+00  0.00000000E+00  0.00000000E+00
  0.00000000E+00  0.00000000E+00  0.00000000E+00
  0.00000000E+00  0.00000000E+00  0.00000000E+00
  0.00000000E+00  0.00000000E+00  0.00000000E+00
  0.00000000E+00  0.00000000E+00  0.00000000E+00
  0.00000000E+00  0.00000000E+00  0.00000000E+00
  0.00000000E+00  0.00000000E+00  0.00000000E+00
  0.00000000E+00  0.00000000E+00  0.00000000E+00
  0.00000000E+00  0.00000000E+00  0.00000000E+00
  0.00000000E+00  0.00000000E+00  0.00000000E+00
