Au  O Pd                                
   1.00000000000000     
    11.0025815152626798    0.0000000000000000    0.0000000000000000
     5.5012907576313399    9.5285150994265617    0.0000000000000000
     0.0000000000000000    0.0000000000000000   26.1917850942952910
   Au   O    Pd
    24     8    24
Selective dynamics
Direct
  0.0833333333333357  0.0833333333333357  0.3817991009012260   F   F   F
  0.3333333333333357  0.8333333333333357  0.3817991009012260   F   F   F
  0.0833333333333357  0.8333333333333357  0.3817991009012260   F   F   F
  0.7329125735092497  0.5144562027295229  0.5711802611772919   T   T   T
  0.6693954614998943  0.6667041151986295  0.4745311120901249   T   T   T
  0.7588649870016954  0.2537492106574526  0.5624548960405830   T   T   T
  0.9168822045351953  0.4135859114617496  0.4748377238489406   T   T   T
  0.7667510894189837  0.0008925484269836  0.5657641466703165   T   T   T
  0.6710216153935347  0.1636082457129097  0.4718303197748027   T   T   T
  0.0833333333333357  0.5833333333333357  0.3817991009012260   F   F   F
  0.9170499848377062  0.6710563437625610  0.4760686894196446   T   T   T
  0.4212362876664998  0.9155894683825582  0.4744874204455615   T   T   T
  0.4739162871657550  0.7564329542817577  0.5685091877344833   T   T   T
  0.0105013127375843  0.7432681761212829  0.5722518694914399   T   T   T
  0.3333333333333357  0.0833333333333357  0.3817991009012260   F   F   F
  0.1678729947220229  0.1638179407141216  0.4811133521247448   T   T   T
  0.4196006179265510  0.4137907625048904  0.4728966536898320   T   T   T
  0.5036805312837053 -0.0083959924734277  0.5603592420713903   T   T   T
  0.1689714760564471  0.4132575816027470  0.4750978156196025   T   T   T
  0.7469249755777909  0.7370445868452478  0.6025305145811223   T   T   T
  0.2565904691847752  0.7174858872990945  0.6058096758617415   T   T   T
  0.3333333333333357  0.5833333333333357  0.3817991009012260   F   F   F
  0.1702200980130067  0.6706815091516530  0.4827439713078489   T   T   T
  0.1724414046489838  0.9151894898125982  0.4818904152132435   T   T   T
  0.8561779410554188  0.8331629114005011  0.6283406525148341   T   T   T
  0.2799718433207702  0.1597974495253771  0.6317768391004444   T   T   T
  0.0623270348984428  0.0887065137707222  0.6266672752307194   T   T   T
  0.2555625666091669  0.8380501474694989  0.6623522751564132   T   T   T
  0.9349729160986635  0.4145628506188011  0.6185998404053081   T   T   T
  0.5780572521640561  0.0859069478333575  0.6117035905010838   T   T   T
  0.5668678252082507  0.3571722083899974  0.6111877579776598   T   T   T
  0.4799694167858552  0.8776034538904443  0.6305456214228837   T   T   T
  0.5833333333333357  0.8333333333333357  0.3817991009012260   F   F   F
  0.4904123761993678  0.2576968959710518  0.5709130072813250   T   T   T
  0.4206495838727066  0.1654541920138006  0.4743823483925059   T   T   T
  0.5833333333333357  0.0833333333333357  0.3817991009012260   F   F   F
  0.5833333333333357  0.5833333333333357  0.3817991009012260   F   F   F
  0.2484931831302737  0.2510784683570354  0.5673733778342228   T   T   T
  0.4223299418256226  0.6653202387075935  0.4761547951899600   T   T   T
  0.4897295280365909  0.5088263147716185  0.5593824089175626   T   T   T
  0.2718167529134428 -0.0083105551490751  0.6370021564996106   T   T   T
  0.2480173169678057  0.4965655327406224  0.5652821501388509   T   T   T
  0.9217330272149185  0.9174273251958772  0.4769220432983494   T   T   T
 -0.0046356056886361  0.5026453125197647  0.5666174266463152   T   T   T
  0.8333333333333357  0.0833333333333357  0.3817991009012260   F   F   F
  0.0063055723902920  0.2433450712648478  0.5768794306261357   T   T   T
  0.8333333333333357  0.3333333333333357  0.3817991009012260   F   F   F
  0.6682578491912305  0.4166486965996664  0.4694814587284106   T   T   T
  0.0833333333333357  0.3333333333333357  0.3817991009012260   F   F   F
  0.8333333333333357  0.5833333333333357  0.3817991009012260   F   F   F
  0.0241878993645298  0.9899921532105035  0.5694889717593665   T   T   T
  0.9203780535773963  0.1638462872481244  0.4750884680069379   T   T   T
  0.8333333333333357  0.8333333333333357  0.3817991009012260   F   F   F
  0.6720873839414921  0.9165001615509092  0.4708679609562746   T   T   T
  0.3333333333333357  0.3333333333333357  0.3817991009012260   F   F   F
  0.5833333333333357  0.3333333333333357  0.3817991009012260   F   F   F
 
  0.00000000E+00  0.00000000E+00  0.00000000E+00
  0.00000000E+00  0.00000000E+00  0.00000000E+00
  0.00000000E+00  0.00000000E+00  0.00000000E+00
  0.00000000E+00  0.00000000E+00  0.00000000E+00
  0.00000000E+00  0.00000000E+00  0.00000000E+00
  0.00000000E+00  0.00000000E+00  0.00000000E+00
  0.00000000E+00  0.00000000E+00  0.00000000E+00
  0.00000000E+00  0.00000000E+00  0.00000000E+00
  0.00000000E+00  0.00000000E+00  0.00000000E+00
  0.00000000E+00  0.00000000E+00  0.00000000E+00
  0.00000000E+00  0.00000000E+00  0.00000000E+00
  0.00000000E+00  0.00000000E+00  0.00000000E+00
  0.00000000E+00  0.00000000E+00  0.00000000E+00
  0.00000000E+00  0.00000000E+00  0.00000000E+00
  0.00000000E+00  0.00000000E+00  0.00000000E+00
  0.00000000E+00  0.00000000E+00  0.00000000E+00
  0.00000000E+00  0.00000000E+00  0.00000000E+00
  0.00000000E+00  0.00000000E+00  0.00000000E+00
  0.00000000E+00  0.00000000E+00  0.00000000E+00
  0.00000000E+00  0.00000000E+00  0.00000000E+00
  0.00000000E+00  0.00000000E+00  0.00000000E+00
  0.00000000E+00  0.00000000E+00  0.00000000E+00
  0.00000000E+00  0.00000000E+00  0.00000000E+00
  0.00000000E+00  0.00000000E+00  0.00000000E+00
  0.00000000E+00  0.00000000E+00  0.00000000E+00
  0.00000000E+00  0.00000000E+00  0.00000000E+00
  0.00000000E+00  0.00000000E+00  0.00000000E+00
  0.00000000E+00  0.00000000E+00  0.00000000E+00
  0.00000000E+00  0.00000000E+00  0.00000000E+00
  0.00000000E+00  0.00000000E+00  0.00000000E+00
  0.00000000E+00  0.00000000E+00  0.00000000E+00
  0.00000000E+00  0.00000000E+00  0.00000000E+00
  0.00000000E+00  0.00000000E+00  0.00000000E+00
  0.00000000E+00  0.00000000E+00  0.00000000E+00
  0.00000000E+00  0.00000000E+00  0.00000000E+00
  0.00000000E+00  0.00000000E+00  0.00000000E+00
  0.00000000E+00  0.00000000E+00  0.00000000E+00
  0.00000000E+00  0.00000000E+00  0.00000000E+00
  0.00000000E+00  0.00000000E+00  0.00000000E+00
  0.00000000E+00  0.00000000E+00  0.00000000E+00
  0.00000000E+00  0.00000000E+00  0.00000000E+00
  0.00000000E+00  0.00000000E+00  0.00000000E+00
  0.00000000E+00  0.00000000E+00  0.00000000E+00
  0.00000000E+00  0.00000000E+00  0.00000000E+00
  0.00000000E+00  0.00000000E+00  0.00000000E+00
  0.00000000E+00  0.00000000E+00  0.00000000E+00
  0.00000000E+00  0.00000000E+00  0.00000000E+00
  0.00000000E+00  0.00000000E+00  0.00000000E+00
  0.00000000E+00  0.00000000E+00  0.00000000E+00
  0.00000000E+00  0.00000000E+00  0.00000000E+00
  0.00000000E+00  0.00000000E+00  0.00000000E+00
  0.00000000E+00  0.00000000E+00  0.00000000E+00
  0.00000000E+00  0.00000000E+00  0.00000000E+00
  0.00000000E+00  0.00000000E+00  0.00000000E+00
  0.00000000E+00  0.00000000E+00  0.00000000E+00
  0.00000000E+00  0.00000000E+00  0.00000000E+00
