Au Pd                                   
   1.00000000000000     
    11.0025815152626798    0.0000000000000000    0.0000000000000000
     5.5012907576313399    9.5285150994265617    0.0000000000000000
     0.0000000000000000    0.0000000000000000   24.4917850942952882
   Au   Pd
    24    24
Direct
  0.0841180951143439  0.0828279872463284  0.3958642442244136
  0.8311300372257819  0.8343498620734071  0.3953022701332700
  0.7492112912782858  0.4995293787829372  0.6034618951098912
  0.6682620156430001  0.6658098598230778  0.4999114409727375
  0.6703561233452937  0.4123914789847419  0.4996033121833811
  0.8319176507990377  0.3343805303235772  0.3977099872580945
  0.4962404315225167  0.7508961997893416  0.6053788159434411
  0.4181992360016514  0.6662047072586041  0.4997726852291641
  0.5808227415446450  0.5861743511490706  0.3932287932642306
  0.4181464267441722  0.4120632063520532  0.4999725832343624
  0.4992468589049007  0.0015253978061059  0.6034047680941224
  0.6663194605020104  0.9192036102127943  0.4998824851594307
  0.1666364417019298  0.9173298045676646  0.4994626089152160
  0.2496582233515080  0.5019085899457241  0.6043196842334785
  0.1660994407904077  0.6659002710425835  0.4996566698939923
  0.2500463934747826  0.2515816793787311  0.6024459223005842
  0.7523985627275273  0.7505122199709775  0.6072112230233450
  0.3342942407265563  0.3332092914356347  0.3984945040393005
 -0.0019835193853757 -0.0013557357105390  0.6007428174021165
  0.1684240308752154  0.1663930644780816  0.4999355849934303
  0.0829208772828576  0.3360066134957375  0.3978653056461418
 -0.0020607529955509  0.2501421503715405  0.6009657246429737
  0.0841332454778402  0.8322901040898129  0.3947616480496800
  0.9182713338840853  0.6646579599293269  0.4998826534122172
  0.9167781661068133  0.1649480951712309  0.4994767045533191
  0.8321348814211477  0.5853612194301729  0.4020938745131934
  0.7473717247369398  0.2491611215868632  0.5964985394032919
  0.9190064291154977  0.4141786655716500  0.4998796423284986
  0.7490382211793383  0.0013403640946525  0.5957223526723859
  0.6689708323389789  0.1647188706610222  0.4989664434610481
  0.8310452602172335  0.0845205598226600  0.4029687227249379
  0.0830277071283090  0.5842761160302714  0.4018476053151682
  0.4182889754529777  0.9163443565655000  0.5022077153775487
  0.4994182987678087  0.4998453453820109  0.5977188556016791
  0.1679256382499605  0.4142545925846046  0.5002109960739041
 -0.0002064218984559  0.5004875856578833  0.5970323150564701
  0.5024313236506651  0.2496353650133145  0.5969652179421228
  0.5837001455164512  0.3324492385842777  0.4015489740510637
  0.9161071099957692  0.9181872156021382  0.4981156848511989
  0.4179127410576571  0.1656087150947707  0.5009887141865854
  0.5827909996786492  0.0846450066288897  0.4029551670112931
 -0.0011705946817634  0.7507980245254112  0.5969333816815396
  0.3365388381214128  0.0813843753850110  0.4044529651880766
  0.3343666466610831  0.8340383734800718  0.4027257666486978
  0.2486558645540184  0.0002389485741230  0.5983551668133040
  0.3336257909998128  0.5834028089146861  0.4016259792974956
  0.5807805897338051  0.8359546160417560  0.4035015533989679
  0.2486519453584672  0.7502878367997126  0.5979700344891938
 
  0.00000000E+00  0.00000000E+00  0.00000000E+00
  0.00000000E+00  0.00000000E+00  0.00000000E+00
  0.00000000E+00  0.00000000E+00  0.00000000E+00
  0.00000000E+00  0.00000000E+00  0.00000000E+00
  0.00000000E+00  0.00000000E+00  0.00000000E+00
  0.00000000E+00  0.00000000E+00  0.00000000E+00
  0.00000000E+00  0.00000000E+00  0.00000000E+00
  0.00000000E+00  0.00000000E+00  0.00000000E+00
  0.00000000E+00  0.00000000E+00  0.00000000E+00
  0.00000000E+00  0.00000000E+00  0.00000000E+00
  0.00000000E+00  0.00000000E+00  0.00000000E+00
  0.00000000E+00  0.00000000E+00  0.00000000E+00
  0.00000000E+00  0.00000000E+00  0.00000000E+00
  0.00000000E+00  0.00000000E+00  0.00000000E+00
  0.00000000E+00  0.00000000E+00  0.00000000E+00
  0.00000000E+00  0.00000000E+00  0.00000000E+00
  0.00000000E+00  0.00000000E+00  0.00000000E+00
  0.00000000E+00  0.00000000E+00  0.00000000E+00
  0.00000000E+00  0.00000000E+00  0.00000000E+00
  0.00000000E+00  0.00000000E+00  0.00000000E+00
  0.00000000E+00  0.00000000E+00  0.00000000E+00
  0.00000000E+00  0.00000000E+00  0.00000000E+00
  0.00000000E+00  0.00000000E+00  0.00000000E+00
  0.00000000E+00  0.00000000E+00  0.00000000E+00
  0.00000000E+00  0.00000000E+00  0.00000000E+00
  0.00000000E+00  0.00000000E+00  0.00000000E+00
  0.00000000E+00  0.00000000E+00  0.00000000E+00
  0.00000000E+00  0.00000000E+00  0.00000000E+00
  0.00000000E+00  0.00000000E+00  0.00000000E+00
  0.00000000E+00  0.00000000E+00  0.00000000E+00
  0.00000000E+00  0.00000000E+00  0.00000000E+00
  0.00000000E+00  0.00000000E+00  0.00000000E+00
  0.00000000E+00  0.00000000E+00  0.00000000E+00
  0.00000000E+00  0.00000000E+00  0.00000000E+00
  0.00000000E+00  0.00000000E+00  0.00000000E+00
  0.00000000E+00  0.00000000E+00  0.00000000E+00
  0.00000000E+00  0.00000000E+00  0.00000000E+00
  0.00000000E+00  0.00000000E+00  0.00000000E+00
  0.00000000E+00  0.00000000E+00  0.00000000E+00
  0.00000000E+00  0.00000000E+00  0.00000000E+00
  0.00000000E+00  0.00000000E+00  0.00000000E+00
  0.00000000E+00  0.00000000E+00  0.00000000E+00
  0.00000000E+00  0.00000000E+00  0.00000000E+00
  0.00000000E+00  0.00000000E+00  0.00000000E+00
  0.00000000E+00  0.00000000E+00  0.00000000E+00
  0.00000000E+00  0.00000000E+00  0.00000000E+00
  0.00000000E+00  0.00000000E+00  0.00000000E+00
  0.00000000E+00  0.00000000E+00  0.00000000E+00
