Au Pd                                   
   1.00000000000000     
    11.0025815152626798    0.0000000000000000    0.0000000000000000
     5.5012907576313399    9.5285150994265617    0.0000000000000000
     0.0000000000000000    0.0000000000000000   24.4917850942952882
   Au   Pd
    24    24
Direct
  0.2535521595573407  0.7485974096629959  0.6011180321593872
  0.4167056964357164  0.9158397285783442  0.5001152794557993
  0.4161513516673319  0.4175348484654149  0.4997814767744023
  0.5858323477086643  0.3321469772016902  0.3981383385837232
  0.5838021671158710  0.0821685578054323  0.3964080450547767
  0.6662528852285798  0.9171083082655356  0.5006995980510022
  0.3330664135901449  0.8341968949668995  0.3985942618582715
  0.8329872729197866  0.3332916288997817  0.3973101780364326
  0.3348556154396115  0.5835342428613814  0.3972856765571198
  0.7473408811420232  0.2502940446529691  0.6032348651176705
  0.5842079653709853  0.8297728925241157  0.3959218669344531
  0.1678294158246784  0.1677620910897036  0.5001970917930278
  0.3334108302604619  0.3309694511362440  0.3967584584905683
 -0.0003661553226888  0.7489758023276915  0.6033402670930118
  0.9151925510533804  0.1676467297549931  0.5016414306148735
  0.9166186546346540  0.9166868254621647  0.5021203281017914
  0.0826176705021958  0.8356202696417749  0.4004202083006116
  0.0012447910804867  0.0008598762316506  0.6071955248208172
  0.0030274745757362  0.4979834093194594  0.6028210440513496
  0.7472376835737246  0.5027293670099172  0.6042100615448388
  0.0832588027869566  0.3310471144118918  0.3958220788396493
  0.0820421004696113  0.5828852819868781  0.4006374191532214
  0.8333131225552592  0.8320494913701306  0.3967422454677503
  0.9146714859686931  0.4203897571291353  0.5013460964691367
  0.5000012822726223  0.7519794885376893  0.5972135434779534
  0.6648144333559863  0.1690174513093340  0.5004322566135075
  0.6655441740775306  0.6663156194639223  0.5012348870866344
  0.7473663789931355  0.0008493713536400  0.5986289049496676
  0.6646740948272332  0.4194993817594282  0.5012967483898388
  0.8327907558541675  0.5821744670395512  0.4042353308908068
  0.8339064570364535  0.0830844311145548  0.4040369495667845
  0.4994325699789937  0.4996285494523574  0.5968197416154902
  0.0832957637945187  0.0829987692000307  0.4038868324872980
  0.5843032949064184  0.5827773620624195  0.4049177742378935
  0.4984827084817896  0.2487283911436994  0.5960617785925285
  0.5003413212476214  0.0005261444238676  0.5972894002547456
  0.4167572748942194  0.1683157396516266  0.4985443708734486
  0.1672011274267527  0.9152000882940770  0.5021081745980054
  0.2529855480014527  0.4968052356639575  0.5963520929632221
  0.1666561777803657  0.6667633929392670  0.5009600928788522
  0.2519656058165227  0.2484841736796668  0.5964036305228129
  0.1663485758585759  0.4183260275937049  0.4996232816396626
  0.2515830755408703  0.0015882708144016  0.5981689190265698
  0.3329942189647718  0.0823652585880633  0.4014550839726429
  0.9174831725558715  0.6666411424916749  0.5013982125504209
  0.0020975543711105  0.2491760242005001  0.5991801241494832
  0.4154164648203358  0.6673161610639911  0.5003161710441776
  0.7487047850034751  0.7513480574023800  0.5975758242938657
 
  0.00000000E+00  0.00000000E+00  0.00000000E+00
  0.00000000E+00  0.00000000E+00  0.00000000E+00
  0.00000000E+00  0.00000000E+00  0.00000000E+00
  0.00000000E+00  0.00000000E+00  0.00000000E+00
  0.00000000E+00  0.00000000E+00  0.00000000E+00
  0.00000000E+00  0.00000000E+00  0.00000000E+00
  0.00000000E+00  0.00000000E+00  0.00000000E+00
  0.00000000E+00  0.00000000E+00  0.00000000E+00
  0.00000000E+00  0.00000000E+00  0.00000000E+00
  0.00000000E+00  0.00000000E+00  0.00000000E+00
  0.00000000E+00  0.00000000E+00  0.00000000E+00
  0.00000000E+00  0.00000000E+00  0.00000000E+00
  0.00000000E+00  0.00000000E+00  0.00000000E+00
  0.00000000E+00  0.00000000E+00  0.00000000E+00
  0.00000000E+00  0.00000000E+00  0.00000000E+00
  0.00000000E+00  0.00000000E+00  0.00000000E+00
  0.00000000E+00  0.00000000E+00  0.00000000E+00
  0.00000000E+00  0.00000000E+00  0.00000000E+00
  0.00000000E+00  0.00000000E+00  0.00000000E+00
  0.00000000E+00  0.00000000E+00  0.00000000E+00
  0.00000000E+00  0.00000000E+00  0.00000000E+00
  0.00000000E+00  0.00000000E+00  0.00000000E+00
  0.00000000E+00  0.00000000E+00  0.00000000E+00
  0.00000000E+00  0.00000000E+00  0.00000000E+00
  0.00000000E+00  0.00000000E+00  0.00000000E+00
  0.00000000E+00  0.00000000E+00  0.00000000E+00
  0.00000000E+00  0.00000000E+00  0.00000000E+00
  0.00000000E+00  0.00000000E+00  0.00000000E+00
  0.00000000E+00  0.00000000E+00  0.00000000E+00
  0.00000000E+00  0.00000000E+00  0.00000000E+00
  0.00000000E+00  0.00000000E+00  0.00000000E+00
  0.00000000E+00  0.00000000E+00  0.00000000E+00
  0.00000000E+00  0.00000000E+00  0.00000000E+00
  0.00000000E+00  0.00000000E+00  0.00000000E+00
  0.00000000E+00  0.00000000E+00  0.00000000E+00
  0.00000000E+00  0.00000000E+00  0.00000000E+00
  0.00000000E+00  0.00000000E+00  0.00000000E+00
  0.00000000E+00  0.00000000E+00  0.00000000E+00
  0.00000000E+00  0.00000000E+00  0.00000000E+00
  0.00000000E+00  0.00000000E+00  0.00000000E+00
  0.00000000E+00  0.00000000E+00  0.00000000E+00
  0.00000000E+00  0.00000000E+00  0.00000000E+00
  0.00000000E+00  0.00000000E+00  0.00000000E+00
  0.00000000E+00  0.00000000E+00  0.00000000E+00
  0.00000000E+00  0.00000000E+00  0.00000000E+00
  0.00000000E+00  0.00000000E+00  0.00000000E+00
  0.00000000E+00  0.00000000E+00  0.00000000E+00
  0.00000000E+00  0.00000000E+00  0.00000000E+00
