Au Pd                                   
   1.00000000000000     
    11.0025815152626798    0.0000000000000000    0.0000000000000000
     5.5012907576313399    9.5285150994265617    0.0000000000000000
     0.0000000000000000    0.0000000000000000   24.4917850942952882
   Au   Pd
    24    24
Selective dynamics
Direct
  0.2491690263034307  0.7494825685054598  0.6090275075260083   T   T   T
  0.0833333333333357  0.8333333333333357  0.4083001692812189   F   F   F
  0.7502740012576135  0.2498170232356283  0.6121961177635770   T   T   T
  0.8333333333333357  0.5833333333333357  0.4083001692812189   F   F   F
  0.4987197492854670  0.2499529191428111  0.6127988098891485   T   T   T
  0.0023855729170689  0.2525100576305619  0.6104778450182011   T   T   T
  0.3333333333333357  0.0833333333333357  0.4083001692812189   F   F   F
  0.7526869743947333  0.5012964804647437  0.6094503621350815   T   T   T
  0.0005789414254479 -0.0023680496370963  0.6098629720545788   T   T   T
  0.9195693175113004  0.1640440027472524  0.5086517867017913   T   T   T
  0.8333333333333357  0.3333333333333357  0.4083001692812189   F   F   F
  0.2500028281216821  0.0016702768521510  0.6075307480488376   T   T   T
  0.6651815530459276  0.4192577564631548  0.5073636873922495   T   T   T
  0.4171513435713280  0.4172109281607033  0.5058507665398188   T   T   T
  0.1636510977706858  0.4166574175166671  0.5057526254663730   T   T   T
  0.8333333333333357  0.0833333333333357  0.4083001692812189   F   F   F
  0.5023260712572757  0.7491028380347079  0.6070916251871534   T   T   T
  0.1651816022753879  0.6681853518267195  0.5069746887469823   T   T   T
  0.2461268434931961  0.4997038196681091  0.6137451658725366   T   T   T
  0.5833333333333357  0.8333333333333357  0.4083001692812189   F   F   F
  0.4986852689026235  0.5007003166193114  0.6128511466929074   T   T   T
  0.4191387094229578  0.1641949754426318  0.5069485444995387   T   T   T
  0.5015415106154649 -0.0015182741354430  0.6085171513155229   T   T   T
  0.7512783778552697 -0.0028190368588418  0.6075305508892943   T   T   T
  0.9145234213774356  0.9158539715166543  0.5073550274916635   T   T   T
  0.5833333333333357  0.3333333333333357  0.4083001692812189   F   F   F
 -0.0008815869261419  0.7484938789465991  0.6031284766139184   T   T   T
  0.3333333333333357  0.3333333333333357  0.4083001692812189   F   F   F
  0.6680818348181458  0.9162368944014727  0.5064198681349624   T   T   T
  0.3333333333333357  0.5833333333333357  0.4083001692812189   F   F   F
  0.3333333333333357  0.8333333333333357  0.4083001692812189   F   F   F
  0.1685044235890097  0.9160685107971396  0.5070359586514841   T   T   T
 -0.0000544065989220  0.5017237503003444  0.6028900167851357   T   T   T
  0.2497793497389721  0.2511149861630060  0.6039891926065464   T   T   T
  0.9137187462504242  0.6682044890119958  0.5053961717408266   T   T   T
  0.0833333333333357  0.0833333333333357  0.4083001692812189   F   F   F
  0.9162491215615000  0.4174835239207961  0.5076919118518191   T   T   T
  0.0833333333333357  0.3333333333333357  0.4083001692812189   F   F   F
  0.5833333333333357  0.0833333333333357  0.4083001692812189   F   F   F
  0.4162965115735802  0.9148205611394529  0.5071571013909983   T   T   T
  0.6657560256141127  0.6681311413297345  0.5069857804690803   T   T   T
  0.5833333333333357  0.5833333333333357  0.4083001692812189   F   F   F
  0.6673484702326633  0.1658872678840023  0.5072526057402184   T   T   T
  0.4163058874098254  0.6689957745985528  0.5058291765176245   T   T   T
  0.8333333333333357  0.8333333333333357  0.4083001692812189   F   F   F
  0.1663731337144439  0.1655359847515759  0.5068524154159306   T   T   T
  0.0833333333333357  0.5833333333333357  0.4083001692812189   F   F   F
  0.7537884406086447  0.7479700288751425  0.6013650735893271   T   T   T
 
  0.00000000E+00  0.00000000E+00  0.00000000E+00
  0.00000000E+00  0.00000000E+00  0.00000000E+00
  0.00000000E+00  0.00000000E+00  0.00000000E+00
  0.00000000E+00  0.00000000E+00  0.00000000E+00
  0.00000000E+00  0.00000000E+00  0.00000000E+00
  0.00000000E+00  0.00000000E+00  0.00000000E+00
  0.00000000E+00  0.00000000E+00  0.00000000E+00
  0.00000000E+00  0.00000000E+00  0.00000000E+00
  0.00000000E+00  0.00000000E+00  0.00000000E+00
  0.00000000E+00  0.00000000E+00  0.00000000E+00
  0.00000000E+00  0.00000000E+00  0.00000000E+00
  0.00000000E+00  0.00000000E+00  0.00000000E+00
  0.00000000E+00  0.00000000E+00  0.00000000E+00
  0.00000000E+00  0.00000000E+00  0.00000000E+00
  0.00000000E+00  0.00000000E+00  0.00000000E+00
  0.00000000E+00  0.00000000E+00  0.00000000E+00
  0.00000000E+00  0.00000000E+00  0.00000000E+00
  0.00000000E+00  0.00000000E+00  0.00000000E+00
  0.00000000E+00  0.00000000E+00  0.00000000E+00
  0.00000000E+00  0.00000000E+00  0.00000000E+00
  0.00000000E+00  0.00000000E+00  0.00000000E+00
  0.00000000E+00  0.00000000E+00  0.00000000E+00
  0.00000000E+00  0.00000000E+00  0.00000000E+00
  0.00000000E+00  0.00000000E+00  0.00000000E+00
  0.00000000E+00  0.00000000E+00  0.00000000E+00
  0.00000000E+00  0.00000000E+00  0.00000000E+00
  0.00000000E+00  0.00000000E+00  0.00000000E+00
  0.00000000E+00  0.00000000E+00  0.00000000E+00
  0.00000000E+00  0.00000000E+00  0.00000000E+00
  0.00000000E+00  0.00000000E+00  0.00000000E+00
  0.00000000E+00  0.00000000E+00  0.00000000E+00
  0.00000000E+00  0.00000000E+00  0.00000000E+00
  0.00000000E+00  0.00000000E+00  0.00000000E+00
  0.00000000E+00  0.00000000E+00  0.00000000E+00
  0.00000000E+00  0.00000000E+00  0.00000000E+00
  0.00000000E+00  0.00000000E+00  0.00000000E+00
  0.00000000E+00  0.00000000E+00  0.00000000E+00
  0.00000000E+00  0.00000000E+00  0.00000000E+00
  0.00000000E+00  0.00000000E+00  0.00000000E+00
  0.00000000E+00  0.00000000E+00  0.00000000E+00
  0.00000000E+00  0.00000000E+00  0.00000000E+00
  0.00000000E+00  0.00000000E+00  0.00000000E+00
  0.00000000E+00  0.00000000E+00  0.00000000E+00
  0.00000000E+00  0.00000000E+00  0.00000000E+00
  0.00000000E+00  0.00000000E+00  0.00000000E+00
  0.00000000E+00  0.00000000E+00  0.00000000E+00
  0.00000000E+00  0.00000000E+00  0.00000000E+00
  0.00000000E+00  0.00000000E+00  0.00000000E+00
