Au Pd                                   
   1.00000000000000     
    11.0025815152626798    0.0000000000000000    0.0000000000000000
     5.5012907576313399    9.5285150994265617    0.0000000000000000
     0.0000000000000000    0.0000000000000000   24.4917850942952882
   Au   Pd
    24    24
Direct
  0.0827230779106450  0.0817958419979003  0.3989594749318821
  0.5830488150994613  0.3340634975160879  0.4007804167845225
  0.8349257681674085  0.0794807464391750  0.4015143267123573
  0.4182457359363271  0.1663050107538041  0.5019591966077134
  0.5849563275009971  0.0819268272311710  0.3953905816826556
  0.6684371598995792  0.9146189715001924  0.5013578764637824
  0.3330157171195341  0.8322029220562269  0.4011860017225927
  0.7490926268335034  0.0004074085717096  0.6036082640466777
  0.1667512550942744  0.6678436468544034  0.5014778369713456
  0.3330280404974497  0.5846976797815845  0.3990347301882649
  0.2498566312337518  0.2527077539490311  0.6091145191394882
  0.1666325165642771  0.4174164129665009  0.5017322594132561
  0.5840953768033310  0.8317373077213632  0.3977966761340630
  0.2528373117598583 -0.0020019889453624  0.6038040902941968
  0.3320432267547740  0.3345768961560540  0.3969449961588766
  0.3334561249183592  0.0826999876580118  0.3969619221177600
  0.0001806732085640  0.0003758637846739  0.6022577810667893
  0.0823188076775183  0.3342037036563226  0.3915185724140787
  0.9136519071560563  0.4175893429434648  0.5009739329922273
  0.1660755594179950  0.1646436292425803  0.5021541096812437
  0.0805173926700970  0.5876778583431221  0.3942668256380625
  0.5005468556884135  0.5002692511053549  0.6013066595837483
  0.8320280212952961  0.5851252548076353  0.3974960172751336
  0.8320143590160508  0.3340784918249310  0.3985488392012089
  0.6674788588741428  0.1673883979025603  0.5009532748176633
  0.7500573601341435  0.2519392107748818  0.5966936876357736
  0.6650806015571458  0.4170315560841451  0.5009554253990348
  0.8336630385586257  0.8334349191442847  0.4045189622340672
  0.5026442850955578  0.7493788230620334  0.5966115860031553
  0.4166956250221810  0.9141550657846168  0.5009411873380138
  0.6655287315938666  0.6664346728013665  0.4994801466948057
  0.7509645752512035  0.5005728660024947  0.5973299042599445
  0.2513139196808616  0.7488322936160235  0.5980689360218292
  0.5832258297181315  0.5831315193916861  0.4039272468733457
  0.5003170062609196  0.2508403710588923  0.5978275788867005
  0.4186092998910886  0.4170096986292352  0.5012816614779574
  0.5006948927900694 -0.0008317904282326  0.5984913189810831
  0.1668329706534899  0.9163386586531770  0.5021495212888009
  0.2494826402873998  0.5010707200994654  0.5988909098807946
  0.0006191004227172  0.7473579155506468  0.5978460810013713
  0.9163698906601124  0.9180195838451801  0.5029434248707501
  0.0822950717611518  0.8331226271786950  0.4053969801915763
 -0.0015131011266095  0.5021433605585595  0.5981301938765997
  0.9163057350750021  0.6666296088030746  0.4998742645768748
 -0.0016542604810962  0.2525456354946597  0.5985025028826058
  0.9152484254412162  0.1652312390451898  0.5011485063756924
  0.4188023659611016  0.6662624274129109  0.5009244884611433
  0.7504578486940549  0.7475183016185137  0.5969663027484906
 
  0.00000000E+00  0.00000000E+00  0.00000000E+00
  0.00000000E+00  0.00000000E+00  0.00000000E+00
  0.00000000E+00  0.00000000E+00  0.00000000E+00
  0.00000000E+00  0.00000000E+00  0.00000000E+00
  0.00000000E+00  0.00000000E+00  0.00000000E+00
  0.00000000E+00  0.00000000E+00  0.00000000E+00
  0.00000000E+00  0.00000000E+00  0.00000000E+00
  0.00000000E+00  0.00000000E+00  0.00000000E+00
  0.00000000E+00  0.00000000E+00  0.00000000E+00
  0.00000000E+00  0.00000000E+00  0.00000000E+00
  0.00000000E+00  0.00000000E+00  0.00000000E+00
  0.00000000E+00  0.00000000E+00  0.00000000E+00
  0.00000000E+00  0.00000000E+00  0.00000000E+00
  0.00000000E+00  0.00000000E+00  0.00000000E+00
  0.00000000E+00  0.00000000E+00  0.00000000E+00
  0.00000000E+00  0.00000000E+00  0.00000000E+00
  0.00000000E+00  0.00000000E+00  0.00000000E+00
  0.00000000E+00  0.00000000E+00  0.00000000E+00
  0.00000000E+00  0.00000000E+00  0.00000000E+00
  0.00000000E+00  0.00000000E+00  0.00000000E+00
  0.00000000E+00  0.00000000E+00  0.00000000E+00
  0.00000000E+00  0.00000000E+00  0.00000000E+00
  0.00000000E+00  0.00000000E+00  0.00000000E+00
  0.00000000E+00  0.00000000E+00  0.00000000E+00
  0.00000000E+00  0.00000000E+00  0.00000000E+00
  0.00000000E+00  0.00000000E+00  0.00000000E+00
  0.00000000E+00  0.00000000E+00  0.00000000E+00
  0.00000000E+00  0.00000000E+00  0.00000000E+00
  0.00000000E+00  0.00000000E+00  0.00000000E+00
  0.00000000E+00  0.00000000E+00  0.00000000E+00
  0.00000000E+00  0.00000000E+00  0.00000000E+00
  0.00000000E+00  0.00000000E+00  0.00000000E+00
  0.00000000E+00  0.00000000E+00  0.00000000E+00
  0.00000000E+00  0.00000000E+00  0.00000000E+00
  0.00000000E+00  0.00000000E+00  0.00000000E+00
  0.00000000E+00  0.00000000E+00  0.00000000E+00
  0.00000000E+00  0.00000000E+00  0.00000000E+00
  0.00000000E+00  0.00000000E+00  0.00000000E+00
  0.00000000E+00  0.00000000E+00  0.00000000E+00
  0.00000000E+00  0.00000000E+00  0.00000000E+00
  0.00000000E+00  0.00000000E+00  0.00000000E+00
  0.00000000E+00  0.00000000E+00  0.00000000E+00
  0.00000000E+00  0.00000000E+00  0.00000000E+00
  0.00000000E+00  0.00000000E+00  0.00000000E+00
  0.00000000E+00  0.00000000E+00  0.00000000E+00
  0.00000000E+00  0.00000000E+00  0.00000000E+00
  0.00000000E+00  0.00000000E+00  0.00000000E+00
  0.00000000E+00  0.00000000E+00  0.00000000E+00
