Au  O Pd                                
   1.00000000000000     
    11.0025815152626798    0.0000000000000000    0.0000000000000000
     5.5012907576313399    9.5285150994265617    0.0000000000000000
     0.0000000000000000    0.0000000000000000   26.1917850942952910
   Au   O    Pd
    24     8    24
Selective dynamics
Direct
  0.0833333333333357  0.0833333333333357  0.3817991009012260   F   F   F
  0.2421199509319829  0.5021321821081801  0.5620135118395274   T   T   T
  0.4982243046565151  0.7565567846587151  0.5596321655984352   T   T   T
  0.6670216541221443  0.9128163822173108  0.4743224334906080   T   T   T
  0.6646137060333638  0.4185366216128655  0.4740214356723447   T   T   T
  0.0833333333333357  0.3333333333333357  0.3817991009012260   F   F   F
  0.9180400163986074  0.4154515176876431  0.4779611148520112   T   T   T
 -0.0139744925217150  0.2426861572793194  0.5779427445061057   T   T   T
  0.7511505686951849  0.0100586692979595  0.5752845681879747   T   T   T
  0.0833333333333357  0.5833333333333357  0.3817991009012260   F   F   F
  0.9220713400808500  0.6623572837215288  0.4744209992683852   T   T   T
  0.4139388849535330  0.9169462712209855  0.4725904841906016   T   T   T
  0.6665865582572569  0.1619775334197861  0.4759647947372425   T   T   T
  0.5833333333333357  0.5833333333333357  0.3817991009012260   F   F   F
  0.3333333333333357  0.0833333333333357  0.3817991009012260   F   F   F
  0.1644951447939387  0.1610866314999409  0.4820106964624734   T   T   T
  0.2296121684580670 -0.0110815754383471  0.5887273773525410   T   T   T
  0.5105632119027793  0.2532104707767390  0.5821160828056587   T   T   T
  0.4133030493287586  0.4158760468017154  0.4731923990086097   T   T   T
  0.5210254059837731  0.0160942389352503  0.6056933617497325   T   T   T
  0.2397364063258275  0.2515384381021646  0.5677198743498886   T   T   T
  0.5833333333333357  0.0833333333333357  0.3817991009012260   F   F   F
  0.7733196148009465  0.7320331815441228  0.5621030746510091   T   T   T
  0.0158496028062515  0.7563566530965649  0.5804954027476681   T   T   T
  0.3360672039617626  0.3510379240737013  0.6233925442334721   T   T   T
  0.3262535524707856  0.0682971767504046  0.6313361783213596   T   T   T
  0.0710625523121279  0.3265082243018051  0.6294325376447358   T   T   T
  0.0953515202848173  0.5738316070068353  0.6312840531944187   T   T   T
  0.8456990553954948  0.8519160917834806  0.6289559718518896   T   T   T
  0.7893871758545397  0.5171149305562740  0.6397347859769655   T   T   T
  0.5982214053416729  0.8072646947222198  0.6176019146356609   T   T   T
  0.3671415082459620  0.6316057512377364  0.6178666222876055   T   T   T
  0.4163383368001218  0.1630908054714520  0.4835900883310828   T   T   T
  0.3333333333333357  0.3333333333333357  0.3817991009012260   F   F   F
  0.3333333333333357  0.5833333333333357  0.3817991009012260   F   F   F
  0.2566260252158696  0.7486350455348795  0.5619798948422985   T   T   T
  0.1660021021085635  0.9121855175313096  0.4724471308046884   T   T   T
  0.4154689484554052  0.6665397955352717  0.4718554959091754   T   T   T
  0.5019777298409533  0.5025094233420205  0.5685797143405892   T   T   T
  0.5833333333333357  0.3333333333333357  0.3817991009012260   F   F   F
  0.9172292629471595  0.9126231895164062  0.4706929059996672   T   T   T
  0.1651753794351342  0.6677485805786207  0.4752884780287922   T   T   T
  0.0833333333333357  0.8333333333333357  0.3817991009012260   F   F   F
  0.9152733806846207  0.1668584693408812  0.4717054272421367   T   T   T
  0.8333333333333357  0.8333333333333357  0.3817991009012260   F   F   F
 -0.0046127261122683  0.0007300659297058  0.5547658709269857   T   T   T
  0.7506706500873739  0.4964678029049850  0.5683375773261059   T   T   T
  0.6697994840033736  0.6653429001143927  0.4713022291248739   T   T   T
  0.8333333333333357  0.5833333333333357  0.3817991009012260   F   F   F
  0.7431461552650173  0.2562482096345765  0.5608150236158752   T   T   T
  0.8333333333333357  0.3333333333333357  0.3817991009012260   F   F   F
 -0.0465212262669370  0.5257393594926912  0.6371288319685351   T   T   T
  0.8333333333333357  0.0833333333333357  0.3817991009012260   F   F   F
  0.3333333333333357  0.8333333333333357  0.3817991009012260   F   F   F
  0.5833333333333357  0.8333333333333357  0.3817991009012260   F   F   F
  0.1696902635753181  0.4085911969697537  0.4729138289019620   T   T   T
 
  0.00000000E+00  0.00000000E+00  0.00000000E+00
  0.00000000E+00  0.00000000E+00  0.00000000E+00
  0.00000000E+00  0.00000000E+00  0.00000000E+00
  0.00000000E+00  0.00000000E+00  0.00000000E+00
  0.00000000E+00  0.00000000E+00  0.00000000E+00
  0.00000000E+00  0.00000000E+00  0.00000000E+00
  0.00000000E+00  0.00000000E+00  0.00000000E+00
  0.00000000E+00  0.00000000E+00  0.00000000E+00
  0.00000000E+00  0.00000000E+00  0.00000000E+00
  0.00000000E+00  0.00000000E+00  0.00000000E+00
  0.00000000E+00  0.00000000E+00  0.00000000E+00
  0.00000000E+00  0.00000000E+00  0.00000000E+00
  0.00000000E+00  0.00000000E+00  0.00000000E+00
  0.00000000E+00  0.00000000E+00  0.00000000E+00
  0.00000000E+00  0.00000000E+00  0.00000000E+00
  0.00000000E+00  0.00000000E+00  0.00000000E+00
  0.00000000E+00  0.00000000E+00  0.00000000E+00
  0.00000000E+00  0.00000000E+00  0.00000000E+00
  0.00000000E+00  0.00000000E+00  0.00000000E+00
  0.00000000E+00  0.00000000E+00  0.00000000E+00
  0.00000000E+00  0.00000000E+00  0.00000000E+00
  0.00000000E+00  0.00000000E+00  0.00000000E+00
  0.00000000E+00  0.00000000E+00  0.00000000E+00
  0.00000000E+00  0.00000000E+00  0.00000000E+00
  0.00000000E+00  0.00000000E+00  0.00000000E+00
  0.00000000E+00  0.00000000E+00  0.00000000E+00
  0.00000000E+00  0.00000000E+00  0.00000000E+00
  0.00000000E+00  0.00000000E+00  0.00000000E+00
  0.00000000E+00  0.00000000E+00  0.00000000E+00
  0.00000000E+00  0.00000000E+00  0.00000000E+00
  0.00000000E+00  0.00000000E+00  0.00000000E+00
  0.00000000E+00  0.00000000E+00  0.00000000E+00
  0.00000000E+00  0.00000000E+00  0.00000000E+00
  0.00000000E+00  0.00000000E+00  0.00000000E+00
  0.00000000E+00  0.00000000E+00  0.00000000E+00
  0.00000000E+00  0.00000000E+00  0.00000000E+00
  0.00000000E+00  0.00000000E+00  0.00000000E+00
  0.00000000E+00  0.00000000E+00  0.00000000E+00
  0.00000000E+00  0.00000000E+00  0.00000000E+00
  0.00000000E+00  0.00000000E+00  0.00000000E+00
  0.00000000E+00  0.00000000E+00  0.00000000E+00
  0.00000000E+00  0.00000000E+00  0.00000000E+00
  0.00000000E+00  0.00000000E+00  0.00000000E+00
  0.00000000E+00  0.00000000E+00  0.00000000E+00
  0.00000000E+00  0.00000000E+00  0.00000000E+00
  0.00000000E+00  0.00000000E+00  0.00000000E+00
  0.00000000E+00  0.00000000E+00  0.00000000E+00
  0.00000000E+00  0.00000000E+00  0.00000000E+00
  0.00000000E+00  0.00000000E+00  0.00000000E+00
  0.00000000E+00  0.00000000E+00  0.00000000E+00
  0.00000000E+00  0.00000000E+00  0.00000000E+00
  0.00000000E+00  0.00000000E+00  0.00000000E+00
  0.00000000E+00  0.00000000E+00  0.00000000E+00
  0.00000000E+00  0.00000000E+00  0.00000000E+00
  0.00000000E+00  0.00000000E+00  0.00000000E+00
  0.00000000E+00  0.00000000E+00  0.00000000E+00
