Au  O Pd                                
   1.00000000000000     
    11.0025815152626798    0.0000000000000000    0.0000000000000000
     5.5012907576313399    9.5285150994265617    0.0000000000000000
     0.0000000000000000    0.0000000000000000   26.1917850942952910
   Au   O    Pd
    24     8    24
Selective dynamics
Direct
  0.0833333333333357  0.0833333333333357  0.3817991009012260   F   F   F
  0.8333333333333357  0.3333333333333357  0.3817991009012260   F   F   F
  0.6748963514489233  0.9130532330799351  0.4763327855909506   T   T   T
  0.0144101026255217  0.9744808439331988  0.5611671242506031   T   T   T
  0.7562676490253769  0.4982770653936440  0.5684610869594335   T   T   T
  0.8333333333333357  0.5833333333333357  0.3817991009012260   F   F   F
  0.9225594148422530  0.4166926317523661  0.4763392810266610   T   T   T
  0.0052760202113222  0.2437307646996848  0.5693258029914157   T   T   T
  0.7490982585028456  0.2545074374344752  0.5681991886964355   T   T   T
  0.0833333333333357  0.5833333333333357  0.3817991009012260   F   F   F
  0.6674459451850827  0.4176533288207745  0.4751843803590455   T   T   T
  0.2552294647459573  0.7313995678855948  0.6365812300839826   T   T   T
  0.0178686934133637  0.5058011264258412  0.5648287271616145   T   T   T
  0.1625188601541651  0.6723038869289398  0.5170145323309583   T   T   T
  0.6725082423738693  0.1621476344123265  0.4753752026888873   T   T   T
  0.4168046662825170  0.9161586274227649  0.4717054435171988   T   T   T
  0.5833333333333357  0.8333333333333357  0.3817991009012260   F   F   F
  0.4098308793624293  0.6700393570759794  0.4764714414846460   T   T   T
  0.4964135876824254  0.2513487797309726  0.5631129911117156   T   T   T
  0.1708302068547592  0.4189522647648823  0.4735218257934492   T   T   T
  0.4122571004378268  0.4212952736619480  0.4733540660432886   T   T   T
  0.5833333333333357  0.0833333333333357  0.3817991009012260   F   F   F
  0.3333333333333357  0.5833333333333357  0.3817991009012260   F   F   F
  0.0833333333333357  0.8333333333333357  0.3817991009012260   F   F   F
  0.3439946158223021  0.2850738527848706  0.6223611265133876   T   T   T
  0.0556432159002439  0.8944194838913266  0.6374498196075808   T   T   T
  0.0588176974515577  0.5353326050418216  0.6408767019615006   T   T   T
  0.8147168042433364  0.8315357019431998  0.6243761229417801   T   T   T
  0.3438159630292160  0.8542383671153327  0.6164996675102763   T   T   T
  0.7436147572832693  0.1392673222631003  0.6279834066876321   T   T   T
  0.4195728180246200  0.5300597554552683  0.6373700099017952   T   T   T
  0.5846369911671806  0.8354905045363989  0.6041786883122277   T   T   T
  0.2502969711953560 -0.0045751647845427  0.5613523808770150   T   T   T
  0.5833333333333357  0.5833333333333357  0.3817991009012260   F   F   F
  0.3333333333333357  0.3333333333333357  0.3817991009012260   F   F   F
  0.4952211056470835  0.0038496534006996  0.5611935398384367   T   T   T
  0.5833333333333357  0.3333333333333357  0.3817991009012260   F   F   F
  0.4158475987148094  0.1669036372259909  0.4722094047906943   T   T   T
  0.7657468265043039  0.7426818579485186  0.5657621657746411   T   T   T
  0.2570365312370023  0.4929001318186725  0.6363313632400076   T   T   T
  0.1678506531477059  0.9112515303034054  0.4719520382929936   T   T   T
  0.4873195427065199  0.5042347750599174  0.5651065726036943   T   T   T
  0.3333333333333357  0.8333333333333357  0.3817991009012260   F   F   F
  0.1694259949695800  0.1641077148045528  0.4763607489234514   T   T   T
  0.5027870161227036  0.7367346967425040  0.5671974607951378   T   T   T
  0.8333333333333357  0.0833333333333357  0.3817991009012260   F   F   F
  0.0187575229511369  0.7330374494241141  0.6370938024558123   T   T   T
  0.7501694566628319 -0.0005104729542763  0.5810498785098471   T   T   T
  0.9233468635146138  0.9104612698051974  0.4728366414347668   T   T   T
  0.9256272325263142  0.6687144720108474  0.4762079052325821   T   T   T
  0.0833333333333357  0.3333333333333357  0.3817991009012260   F   F   F
  0.6693196754484134  0.6668411837263628  0.4772024349132482   T   T   T
  0.8333333333333357  0.8333333333333357  0.3817991009012260   F   F   F
  0.9231528047443130  0.1612978689171026  0.4763443191885302   T   T   T
  0.2490085030306511  0.2474330857004232  0.5648939898065206   T   T   T
  0.3333333333333357  0.0833333333333357  0.3817991009012260   F   F   F
 
  0.00000000E+00  0.00000000E+00  0.00000000E+00
  0.00000000E+00  0.00000000E+00  0.00000000E+00
  0.00000000E+00  0.00000000E+00  0.00000000E+00
  0.00000000E+00  0.00000000E+00  0.00000000E+00
  0.00000000E+00  0.00000000E+00  0.00000000E+00
  0.00000000E+00  0.00000000E+00  0.00000000E+00
  0.00000000E+00  0.00000000E+00  0.00000000E+00
  0.00000000E+00  0.00000000E+00  0.00000000E+00
  0.00000000E+00  0.00000000E+00  0.00000000E+00
  0.00000000E+00  0.00000000E+00  0.00000000E+00
  0.00000000E+00  0.00000000E+00  0.00000000E+00
  0.00000000E+00  0.00000000E+00  0.00000000E+00
  0.00000000E+00  0.00000000E+00  0.00000000E+00
  0.00000000E+00  0.00000000E+00  0.00000000E+00
  0.00000000E+00  0.00000000E+00  0.00000000E+00
  0.00000000E+00  0.00000000E+00  0.00000000E+00
  0.00000000E+00  0.00000000E+00  0.00000000E+00
  0.00000000E+00  0.00000000E+00  0.00000000E+00
  0.00000000E+00  0.00000000E+00  0.00000000E+00
  0.00000000E+00  0.00000000E+00  0.00000000E+00
  0.00000000E+00  0.00000000E+00  0.00000000E+00
  0.00000000E+00  0.00000000E+00  0.00000000E+00
  0.00000000E+00  0.00000000E+00  0.00000000E+00
  0.00000000E+00  0.00000000E+00  0.00000000E+00
  0.00000000E+00  0.00000000E+00  0.00000000E+00
  0.00000000E+00  0.00000000E+00  0.00000000E+00
  0.00000000E+00  0.00000000E+00  0.00000000E+00
  0.00000000E+00  0.00000000E+00  0.00000000E+00
  0.00000000E+00  0.00000000E+00  0.00000000E+00
  0.00000000E+00  0.00000000E+00  0.00000000E+00
  0.00000000E+00  0.00000000E+00  0.00000000E+00
  0.00000000E+00  0.00000000E+00  0.00000000E+00
  0.00000000E+00  0.00000000E+00  0.00000000E+00
  0.00000000E+00  0.00000000E+00  0.00000000E+00
  0.00000000E+00  0.00000000E+00  0.00000000E+00
  0.00000000E+00  0.00000000E+00  0.00000000E+00
  0.00000000E+00  0.00000000E+00  0.00000000E+00
  0.00000000E+00  0.00000000E+00  0.00000000E+00
  0.00000000E+00  0.00000000E+00  0.00000000E+00
  0.00000000E+00  0.00000000E+00  0.00000000E+00
  0.00000000E+00  0.00000000E+00  0.00000000E+00
  0.00000000E+00  0.00000000E+00  0.00000000E+00
  0.00000000E+00  0.00000000E+00  0.00000000E+00
  0.00000000E+00  0.00000000E+00  0.00000000E+00
  0.00000000E+00  0.00000000E+00  0.00000000E+00
  0.00000000E+00  0.00000000E+00  0.00000000E+00
  0.00000000E+00  0.00000000E+00  0.00000000E+00
  0.00000000E+00  0.00000000E+00  0.00000000E+00
  0.00000000E+00  0.00000000E+00  0.00000000E+00
  0.00000000E+00  0.00000000E+00  0.00000000E+00
  0.00000000E+00  0.00000000E+00  0.00000000E+00
  0.00000000E+00  0.00000000E+00  0.00000000E+00
  0.00000000E+00  0.00000000E+00  0.00000000E+00
  0.00000000E+00  0.00000000E+00  0.00000000E+00
  0.00000000E+00  0.00000000E+00  0.00000000E+00
  0.00000000E+00  0.00000000E+00  0.00000000E+00
