Au  O Pd                                
   1.00000000000000     
    11.0025815152626798    0.0000000000000000    0.0000000000000000
     5.5012907576313399    9.5285150994265617    0.0000000000000000
     0.0000000000000000    0.0000000000000000   26.1917850942952910
   Au   O    Pd
    24     8    24
Selective dynamics
Direct
  0.0833333333333357  0.0833333333333357  0.3817991009012260   F   F   F
  0.8333333333333357  0.3333333333333357  0.3817991009012260   F   F   F
  0.6798324358053593  0.9125339469163583  0.4748325601242294   T   T   T
  0.0123115305410944 -0.0186373644471441  0.5583480463434727   T   T   T
  0.7482650022260626  0.5018720536800816  0.5581155571512294   T   T   T
  0.8333333333333357  0.5833333333333357  0.3817991009012260   F   F   F
  0.9233783571258823  0.4174232375323134  0.4695229163749413   T   T   T
  0.0075241012430598  0.2409222095164217  0.5658964000517014   T   T   T
  0.7633054857083703  0.2751448042837446  0.5983396992288825   T   T   T
  0.0833333333333357  0.5833333333333357  0.3817991009012260   F   F   F
  0.6656101871114506  0.4191376183297782  0.4701715574807990   T   T   T
  0.2640028461435351  0.7278825426361127  0.6098003223795014   T   T   T
  0.0085003022916592  0.5017673089055518  0.5602438988254851   T   T   T
  0.1695944970213944  0.6670826090455328  0.5096788291223430   T   T   T
  0.6760383826039855  0.1630085627405658  0.4814512393713786   T   T   T
  0.4167388212042842  0.9162010387270444  0.4691180230023734   T   T   T
  0.5833333333333357  0.8333333333333357  0.3817991009012260   F   F   F
  0.4154204267396249  0.6704448232397384  0.4793483177359878   T   T   T
  0.4978282120923533  0.2434313800945178  0.5633383589105572   T   T   T
  0.1752778609544937  0.4164830676272074  0.4712354294981196   T   T   T
  0.4180865909226588  0.4163802164647552  0.4710254521374919   T   T   T
  0.5833333333333357  0.0833333333333357  0.3817991009012260   F   F   F
  0.3333333333333357  0.5833333333333357  0.3817991009012260   F   F   F
  0.0833333333333357  0.8333333333333357  0.3817991009012260   F   F   F
  0.3279059173970179  0.2824759429786781  0.6228603906269996   T   T   T
  0.0767012860994089  0.8591325301473685  0.6409282190616050   T   T   T
  0.0597963726904985  0.5481389019330264  0.6378879527329562   T   T   T
  0.8009933898360845  0.8494762736310707  0.6218546982699006   T   T   T
  0.3298050456936457  0.8789928975872557  0.6178829717364457   T   T   T
  0.8187962811869003  0.0789362270126902  0.6259406701673350   T   T   T
  0.5456798030619092  0.3662371091902649  0.6196496588683834   T   T   T
  0.5792418518657644  0.8492860592360798  0.6062438863791884   T   T   T
  0.2535961637764584 -0.0006235620372270  0.5571893273942981   T   T   T
  0.5833333333333357  0.5833333333333357  0.3817991009012260   F   F   F
  0.3333333333333357  0.3333333333333357  0.3817991009012260   F   F   F
  0.4967850845136523  0.0008853053501620  0.5561070184997287   T   T   T
  0.5833333333333357  0.3333333333333357  0.3817991009012260   F   F   F
  0.4207539634724017  0.1645689451594413  0.4709707196996492   T   T   T
  0.7549060151658760  0.7447717982005061  0.5665761723624593   T   T   T
  0.2543868296179779  0.4891651349135858  0.6165513975042598   T   T   T
  0.1675392393487822  0.9120736660152202  0.4704910782218180   T   T   T
  0.4854399771241573  0.5042337542661702  0.5634928402228649   T   T   T
  0.3333333333333357  0.8333333333333357  0.3817991009012260   F   F   F
  0.1687964899366804  0.1641007332208476  0.4736256793048353   T   T   T
  0.5033983064083013  0.7323855365937122  0.5821167763280100   T   T   T
  0.8333333333333357  0.0833333333333357  0.3817991009012260   F   F   F
  0.0094434516669874  0.7381289313857332  0.6118985527930617   T   T   T
  0.7518301945655347  0.0021874372943774  0.5723595758591596   T   T   T
  0.9258263407749144  0.9113488298997394  0.4702372128881798   T   T   T
  0.9253282662348122  0.6702233212190477  0.4751836127363053   T   T   T
  0.0833333333333357  0.3333333333333357  0.3817991009012260   F   F   F
  0.6678263017716957  0.6718889006500141  0.4736888958727556   T   T   T
  0.8333333333333357  0.8333333333333357  0.3817991009012260   F   F   F
  0.9176862848927478  0.1669379143460087  0.4766314411347819   T   T   T
  0.2493409310258190  0.2458083276984906  0.5608758782311744   T   T   T
  0.3333333333333357  0.0833333333333357  0.3817991009012260   F   F   F
 
  0.00000000E+00  0.00000000E+00  0.00000000E+00
  0.00000000E+00  0.00000000E+00  0.00000000E+00
  0.00000000E+00  0.00000000E+00  0.00000000E+00
  0.00000000E+00  0.00000000E+00  0.00000000E+00
  0.00000000E+00  0.00000000E+00  0.00000000E+00
  0.00000000E+00  0.00000000E+00  0.00000000E+00
  0.00000000E+00  0.00000000E+00  0.00000000E+00
  0.00000000E+00  0.00000000E+00  0.00000000E+00
  0.00000000E+00  0.00000000E+00  0.00000000E+00
  0.00000000E+00  0.00000000E+00  0.00000000E+00
  0.00000000E+00  0.00000000E+00  0.00000000E+00
  0.00000000E+00  0.00000000E+00  0.00000000E+00
  0.00000000E+00  0.00000000E+00  0.00000000E+00
  0.00000000E+00  0.00000000E+00  0.00000000E+00
  0.00000000E+00  0.00000000E+00  0.00000000E+00
  0.00000000E+00  0.00000000E+00  0.00000000E+00
  0.00000000E+00  0.00000000E+00  0.00000000E+00
  0.00000000E+00  0.00000000E+00  0.00000000E+00
  0.00000000E+00  0.00000000E+00  0.00000000E+00
  0.00000000E+00  0.00000000E+00  0.00000000E+00
  0.00000000E+00  0.00000000E+00  0.00000000E+00
  0.00000000E+00  0.00000000E+00  0.00000000E+00
  0.00000000E+00  0.00000000E+00  0.00000000E+00
  0.00000000E+00  0.00000000E+00  0.00000000E+00
  0.00000000E+00  0.00000000E+00  0.00000000E+00
  0.00000000E+00  0.00000000E+00  0.00000000E+00
  0.00000000E+00  0.00000000E+00  0.00000000E+00
  0.00000000E+00  0.00000000E+00  0.00000000E+00
  0.00000000E+00  0.00000000E+00  0.00000000E+00
  0.00000000E+00  0.00000000E+00  0.00000000E+00
  0.00000000E+00  0.00000000E+00  0.00000000E+00
  0.00000000E+00  0.00000000E+00  0.00000000E+00
  0.00000000E+00  0.00000000E+00  0.00000000E+00
  0.00000000E+00  0.00000000E+00  0.00000000E+00
  0.00000000E+00  0.00000000E+00  0.00000000E+00
  0.00000000E+00  0.00000000E+00  0.00000000E+00
  0.00000000E+00  0.00000000E+00  0.00000000E+00
  0.00000000E+00  0.00000000E+00  0.00000000E+00
  0.00000000E+00  0.00000000E+00  0.00000000E+00
  0.00000000E+00  0.00000000E+00  0.00000000E+00
  0.00000000E+00  0.00000000E+00  0.00000000E+00
  0.00000000E+00  0.00000000E+00  0.00000000E+00
  0.00000000E+00  0.00000000E+00  0.00000000E+00
  0.00000000E+00  0.00000000E+00  0.00000000E+00
  0.00000000E+00  0.00000000E+00  0.00000000E+00
  0.00000000E+00  0.00000000E+00  0.00000000E+00
  0.00000000E+00  0.00000000E+00  0.00000000E+00
  0.00000000E+00  0.00000000E+00  0.00000000E+00
  0.00000000E+00  0.00000000E+00  0.00000000E+00
  0.00000000E+00  0.00000000E+00  0.00000000E+00
  0.00000000E+00  0.00000000E+00  0.00000000E+00
  0.00000000E+00  0.00000000E+00  0.00000000E+00
  0.00000000E+00  0.00000000E+00  0.00000000E+00
  0.00000000E+00  0.00000000E+00  0.00000000E+00
  0.00000000E+00  0.00000000E+00  0.00000000E+00
  0.00000000E+00  0.00000000E+00  0.00000000E+00
