Au Pd                                   
   1.00000000000000     
    11.0025815152626798    0.0000000000000000    0.0000000000000000
     5.5012907576313399    9.5285150994265617    0.0000000000000000
     0.0000000000000000    0.0000000000000000   24.4917850942952882
   Au   Pd
    24    24
Direct
  0.2514679789137120  0.7492280599421297  0.6019147851448904
  0.5811253850381091  0.3331341806556998  0.3961318897635218
  0.5021180121380374  0.7517547200409361  0.6014208730706031
  0.6643834400459899  0.9156653227151305  0.5001102094471613
  0.8341064196533692  0.0855255230699797  0.3988505527173238
  0.3292843325536952  0.8371686123134099  0.4012745086805846
  0.2524416305488195  0.4970199510184306  0.6022747726605977
  0.6643002569543066  0.1672820058594933  0.5008834803323425
  0.3308476341695303  0.5846563512921932  0.4011916741066980
  0.1696215764680285  0.4150120563259060  0.4989324640772411
  0.6641905845252074  0.4175412261442727  0.5015596130930324
  0.1676010057357033  0.1628813917805570  0.5001669363068459
  0.5820672247052837  0.5861377238493966  0.3995715833891564
  0.7508577894609634  0.2486887985169821  0.6057331811343787
  0.8300194554831517  0.8371382776112353  0.3918981023121929
  0.0020351107098931 -0.0001702270143019  0.6051982354779237
  0.0818700412901600  0.3322387640755321  0.3913425882681257
  0.9159995751487592  0.4149530438612854  0.5004333604622887
  0.3338185457360009  0.0848894385339620  0.3977346002319187
  0.0825306218208585  0.5850529735832916  0.3951963097437343
  0.7531343717864507  0.5002627665654291  0.6054541455105296
  0.8310183125120079  0.5848831350051512  0.3953900706135676
  0.9194058743076248  0.9152954038065109  0.5012843139359240
  0.9169230035554505  0.6660787724216169  0.4991845240881185
  0.6648762410088072  0.6663485145181779  0.5010967524531612
  0.7502387480734445 -0.0018036130712678  0.5983767676808480
  0.4145682607586275  0.6684295987809837  0.5014750635795624
  0.4162905555356437  0.9145018236206705  0.5006751212051149
  0.5819763159451498  0.8358831383241047  0.4035896052590822
  0.5019302658239408  0.4980616835770003  0.5981570892811559
  0.8318010954726064  0.3347265382553844  0.4038829761666014
  0.0805955926448585  0.0855692312265951  0.4047958622285522
  0.4158753593077016  0.4166704777796596  0.5004768843589856
  0.5013363427653813  0.0018567235860002  0.5973189887205104
  0.4159145377297228  0.1652109431327130  0.4996124308317501
  0.5815431124285559  0.0843592862265386  0.4025056870147984
  0.1671476632705131  0.9146542572188934  0.5021253249975981
  0.1691514357988211  0.6654266002295121  0.5010377665835346
  0.2523255797196171  0.2472735834349709  0.5967218635152149
  0.3322725574929232  0.3338630984266165  0.4017448739917746
  0.2528219121067377  0.0010858387916846  0.5975191067252938
  0.0002077133679903  0.7482373110185873  0.5977298546198120
  0.0811016855663505  0.8357390314352344  0.4042857274188554
  0.0022229111555626  0.4989633039062834  0.5971562563074525
  0.0037974178235328  0.2494682031543984  0.5988622116420255
  0.9171061124229953  0.1645586545509391  0.5030562235076048
  0.5008964441248801  0.2483961760871099  0.5972511563599554
  0.7528339563945236  0.7502013238149808  0.5974136309820530
 
  0.00000000E+00  0.00000000E+00  0.00000000E+00
  0.00000000E+00  0.00000000E+00  0.00000000E+00
  0.00000000E+00  0.00000000E+00  0.00000000E+00
  0.00000000E+00  0.00000000E+00  0.00000000E+00
  0.00000000E+00  0.00000000E+00  0.00000000E+00
  0.00000000E+00  0.00000000E+00  0.00000000E+00
  0.00000000E+00  0.00000000E+00  0.00000000E+00
  0.00000000E+00  0.00000000E+00  0.00000000E+00
  0.00000000E+00  0.00000000E+00  0.00000000E+00
  0.00000000E+00  0.00000000E+00  0.00000000E+00
  0.00000000E+00  0.00000000E+00  0.00000000E+00
  0.00000000E+00  0.00000000E+00  0.00000000E+00
  0.00000000E+00  0.00000000E+00  0.00000000E+00
  0.00000000E+00  0.00000000E+00  0.00000000E+00
  0.00000000E+00  0.00000000E+00  0.00000000E+00
  0.00000000E+00  0.00000000E+00  0.00000000E+00
  0.00000000E+00  0.00000000E+00  0.00000000E+00
  0.00000000E+00  0.00000000E+00  0.00000000E+00
  0.00000000E+00  0.00000000E+00  0.00000000E+00
  0.00000000E+00  0.00000000E+00  0.00000000E+00
  0.00000000E+00  0.00000000E+00  0.00000000E+00
  0.00000000E+00  0.00000000E+00  0.00000000E+00
  0.00000000E+00  0.00000000E+00  0.00000000E+00
  0.00000000E+00  0.00000000E+00  0.00000000E+00
  0.00000000E+00  0.00000000E+00  0.00000000E+00
  0.00000000E+00  0.00000000E+00  0.00000000E+00
  0.00000000E+00  0.00000000E+00  0.00000000E+00
  0.00000000E+00  0.00000000E+00  0.00000000E+00
  0.00000000E+00  0.00000000E+00  0.00000000E+00
  0.00000000E+00  0.00000000E+00  0.00000000E+00
  0.00000000E+00  0.00000000E+00  0.00000000E+00
  0.00000000E+00  0.00000000E+00  0.00000000E+00
  0.00000000E+00  0.00000000E+00  0.00000000E+00
  0.00000000E+00  0.00000000E+00  0.00000000E+00
  0.00000000E+00  0.00000000E+00  0.00000000E+00
  0.00000000E+00  0.00000000E+00  0.00000000E+00
  0.00000000E+00  0.00000000E+00  0.00000000E+00
  0.00000000E+00  0.00000000E+00  0.00000000E+00
  0.00000000E+00  0.00000000E+00  0.00000000E+00
  0.00000000E+00  0.00000000E+00  0.00000000E+00
  0.00000000E+00  0.00000000E+00  0.00000000E+00
  0.00000000E+00  0.00000000E+00  0.00000000E+00
  0.00000000E+00  0.00000000E+00  0.00000000E+00
  0.00000000E+00  0.00000000E+00  0.00000000E+00
  0.00000000E+00  0.00000000E+00  0.00000000E+00
  0.00000000E+00  0.00000000E+00  0.00000000E+00
  0.00000000E+00  0.00000000E+00  0.00000000E+00
  0.00000000E+00  0.00000000E+00  0.00000000E+00
