Au Pd 
 1.0000000000000000
    11.0025815152626798    0.0000000000000000    0.0000000000000000
     5.5012907576313399    9.5285150994265617    0.0000000000000000
     0.0000000000000000    0.0000000000000000   24.4917850942952882
 Au  Pd 
  24  24
Cartesian
  6.8766134470391727  7.1463863245699208 14.4917850942952882
  8.2519361364470090  3.1761716998088536 10.0000000000000000
  9.6272588258548417  7.1463863245699208 14.4917850942952882
 12.3779042046705161  8.7344721744743481 12.2458925471476441
  9.6272588258548453  0.7940429249522134 10.0000000000000000
  8.2519361364470090  7.9404292495221345 10.0000000000000000
  5.5012907576313381  4.7642575497132791 14.4917850942952882
  8.2519361364470107  1.5880858499044268 12.2458925471476441
  6.8766134470391744  5.5583004746654945 10.0000000000000000
  4.1259680682235054  3.9702146247610672 12.2458925471476441
  9.6272588258548453  3.9702146247610672 12.2458925471476441
  2.7506453788156700  1.5880858499044268 12.2458925471476441
  9.6272588258548453  5.5583004746654945 10.0000000000000000
  9.6272588258548453  2.3821287748566404 14.4917850942952882
 13.7532268940783506  7.9404292495221345 10.0000000000000000
  0.0000000000000000  0.0000000000000000 14.4917850942952882
  2.7506453788156700  3.1761716998088536 10.0000000000000000
 12.3779042046705143  3.9702146247610672 12.2458925471476441
  4.1259680682235054  0.7940429249522134 10.0000000000000000
  4.1259680682235054  5.5583004746654945 10.0000000000000000
 11.0025815152626798  4.7642575497132791 14.4917850942952882
 12.3779042046705143  5.5583004746654945 10.0000000000000000
 15.1285495834861869  8.7344721744743481 12.2458925471476441
 13.7532268940783489  6.3523433996177072 12.2458925471476441
 11.0025815152626798  6.3523433996177072 12.2458925471476441
  8.2519361364470107  0.0000000000000000 14.4917850942952882
  8.2519361364470107  6.3523433996177072 12.2458925471476441
  9.6272588258548453  8.7344721744743481 12.2458925471476441
 11.0025815152626780  7.9404292495221345 10.0000000000000000
  8.2519361364470072  4.7642575497132791 14.4917850942952882
 11.0025815152626798  3.1761716998088536 10.0000000000000000
  1.3753226894078350  0.7940429249522134 10.0000000000000000
  6.8766134470391735  3.9702146247610672 12.2458925471476441
  5.5012907576313381  0.0000000000000000 14.4917850942952882
  5.5012907576313399  1.5880858499044268 12.2458925471476441
  6.8766134470391735  0.7940429249522134 10.0000000000000000
  6.8766134470391744  8.7344721744743481 12.2458925471476441
  5.5012907576313399  6.3523433996177072 12.2458925471476441
  4.1259680682235054  2.3821287748566404 14.4917850942952882
  5.5012907576313399  3.1761716998088536 10.0000000000000000
  2.7506453788156695  0.0000000000000000 14.4917850942952882
  4.1259680682235054  7.1463863245699208 14.4917850942952882
  5.5012907576313399  7.9404292495221345 10.0000000000000000
  2.7506453788156691  4.7642575497132791 14.4917850942952882
  1.3753226894078350  2.3821287748566404 14.4917850942952882
 11.0025815152626780  1.5880858499044268 12.2458925471476441
  6.8766134470391744  2.3821287748566404 14.4917850942952882
 12.3779042046705161  7.1463863245699208 14.4917850942952882
