Au Pd                                   
   1.00000000000000     
    11.0025815152626798    0.0000000000000000    0.0000000000000000
     5.5012907576313399    9.5285150994265617    0.0000000000000000
     0.0000000000000000    0.0000000000000000   24.4917850942952882
   Au   Pd
    24    24
Direct
  0.0846618551725577  0.0843301322584595  0.3947791872689473
  0.6665520337056886  0.6668951558853873  0.4997773896777140
  0.7486397346767317  0.2484252528649306  0.6062002953679045
  0.6666102841705293  0.4145985091687679  0.5004872514461997
  0.8350015754531940  0.3358150718563513  0.3963957950814841
  0.6650891688272248  0.1630932240254917  0.5001091553228389
  0.5864884652508353  0.8342272265156514  0.3968840144224058
  0.4999002892996543  0.5005460432543580  0.6063162628273029
  0.4168084680876117  0.6657420857300165  0.5008090875995356
  0.5843694177377866  0.3337340982596698  0.3960671114819566
  0.1673810202491492  0.9163473405477803  0.5002703560626431
  0.3349063957964161  0.8326288013530559  0.3954970766620935
  0.2507954450852507  0.4981735818819679  0.6038657597862270
  0.1667793131472194  0.6649873677976370  0.5004976050557453
  0.1677749849420233  0.4120744822566726  0.4989970465361731
  0.2493050798010056  0.7541411412945682  0.6081846773635603
 -0.0020148001682556  0.4996508226784692  0.6039091802426447
  0.9179180646420374  0.1642629538454433  0.4998059725926521
  0.0016811258565970  0.2484224844387969  0.6013467097729903
  0.0823409025337718  0.5864453586470428  0.3938591327924342
  0.9155104550769332  0.6665038119002434  0.5001330316292989
  0.3345559935685224  0.3328913213980266  0.3965956625177562
  0.7445712861074428  0.7539437868659400  0.6041442076164724
 -0.0029989145368975  0.7542593085224716  0.6061102699408960
  0.6649965951885046  0.9160088135131204  0.4995679503400022
  0.8350176951123408  0.8358877183124207  0.4040092885288201
  0.7482304519028952  0.5004268479451993  0.5978966517127743
  0.2515541408342334  0.2484337990802592  0.5952727936975193
  0.8350700987610696  0.5840918957476345  0.4025748023153075
 -0.0006829655631938  0.0007891828659284  0.5983171297055645
  0.0838354868713572  0.3348123897169905  0.4018891892368576
  0.9178348345672800  0.4139680537327407  0.5001905269256012
  0.7477744936578071  0.0011581634232687  0.5975460432925246
  0.3344463405660894  0.5836921303144967  0.4032042075553548
  0.8341975041437765  0.0819962422384354  0.4032060542039442
  0.4978175018387792  0.7532345630616173  0.5966176301381885
  0.4167914116392486  0.9183832377312944  0.4971214988964031
  0.1672678998331736  0.1648406429989873  0.4985630098696546
  0.3346457927811067  0.0847009312662508  0.4018882911132503
  0.5846606651091026  0.5836931278034565  0.4016403552331407
  0.4985649882863613  0.2487972649340802  0.5956712816217362
  0.4166855232630469  0.4135523158555057  0.4998211736138786
  0.0833992043978684  0.8348169525911522  0.4035678389297848
  0.4969597507013164  0.0021465158649410  0.5933504576409169
  0.4158398354189619  0.1645447925633239  0.4977329671413114
  0.5851301485090387  0.0830848008351917  0.4022699000138305
  0.9157548759697729  0.9144225047777245  0.5019454413563382
  0.2515800817270332  0.0003777495787807  0.5950932778494196
 
  0.00000000E+00  0.00000000E+00  0.00000000E+00
  0.00000000E+00  0.00000000E+00  0.00000000E+00
  0.00000000E+00  0.00000000E+00  0.00000000E+00
  0.00000000E+00  0.00000000E+00  0.00000000E+00
  0.00000000E+00  0.00000000E+00  0.00000000E+00
  0.00000000E+00  0.00000000E+00  0.00000000E+00
  0.00000000E+00  0.00000000E+00  0.00000000E+00
  0.00000000E+00  0.00000000E+00  0.00000000E+00
  0.00000000E+00  0.00000000E+00  0.00000000E+00
  0.00000000E+00  0.00000000E+00  0.00000000E+00
  0.00000000E+00  0.00000000E+00  0.00000000E+00
  0.00000000E+00  0.00000000E+00  0.00000000E+00
  0.00000000E+00  0.00000000E+00  0.00000000E+00
  0.00000000E+00  0.00000000E+00  0.00000000E+00
  0.00000000E+00  0.00000000E+00  0.00000000E+00
  0.00000000E+00  0.00000000E+00  0.00000000E+00
  0.00000000E+00  0.00000000E+00  0.00000000E+00
  0.00000000E+00  0.00000000E+00  0.00000000E+00
  0.00000000E+00  0.00000000E+00  0.00000000E+00
  0.00000000E+00  0.00000000E+00  0.00000000E+00
  0.00000000E+00  0.00000000E+00  0.00000000E+00
  0.00000000E+00  0.00000000E+00  0.00000000E+00
  0.00000000E+00  0.00000000E+00  0.00000000E+00
  0.00000000E+00  0.00000000E+00  0.00000000E+00
  0.00000000E+00  0.00000000E+00  0.00000000E+00
  0.00000000E+00  0.00000000E+00  0.00000000E+00
  0.00000000E+00  0.00000000E+00  0.00000000E+00
  0.00000000E+00  0.00000000E+00  0.00000000E+00
  0.00000000E+00  0.00000000E+00  0.00000000E+00
  0.00000000E+00  0.00000000E+00  0.00000000E+00
  0.00000000E+00  0.00000000E+00  0.00000000E+00
  0.00000000E+00  0.00000000E+00  0.00000000E+00
  0.00000000E+00  0.00000000E+00  0.00000000E+00
  0.00000000E+00  0.00000000E+00  0.00000000E+00
  0.00000000E+00  0.00000000E+00  0.00000000E+00
  0.00000000E+00  0.00000000E+00  0.00000000E+00
  0.00000000E+00  0.00000000E+00  0.00000000E+00
  0.00000000E+00  0.00000000E+00  0.00000000E+00
  0.00000000E+00  0.00000000E+00  0.00000000E+00
  0.00000000E+00  0.00000000E+00  0.00000000E+00
  0.00000000E+00  0.00000000E+00  0.00000000E+00
  0.00000000E+00  0.00000000E+00  0.00000000E+00
  0.00000000E+00  0.00000000E+00  0.00000000E+00
  0.00000000E+00  0.00000000E+00  0.00000000E+00
  0.00000000E+00  0.00000000E+00  0.00000000E+00
  0.00000000E+00  0.00000000E+00  0.00000000E+00
  0.00000000E+00  0.00000000E+00  0.00000000E+00
  0.00000000E+00  0.00000000E+00  0.00000000E+00
