Au Pd                                   
   1.00000000000000     
    11.0025815152626798    0.0000000000000000    0.0000000000000000
     5.5012907576313399    9.5285150994265617    0.0000000000000000
     0.0000000000000000    0.0000000000000000   24.4917850942952882
   Au   Pd
    24    24
Direct
  0.0855574311517004  0.0851238606722169  0.3956875584426453
  0.1669781890691575  0.9169241376239955  0.5012389842192011
  0.6676864286881382  0.9156588591910620  0.4996932535434377
  0.5808449011928140  0.0854092851270314  0.3957134115376745
  0.5838824978460765  0.3343276271389256  0.3966684732998216
  0.4167908287932187  0.4154307469491287  0.5010637329889088
  0.4177228244253305  0.6649211092857085  0.5008018516035768
  0.2485708723868522  0.4982538410898706  0.6045899402725193
  0.5807091275717112  0.8326147721847185  0.3932929206593190
  0.6663086201611955  0.1669315201817367  0.5015224544755144
  0.8334152336597002  0.3364382025531936  0.3989924496531168
  0.7477003640045111  0.2502971364807852  0.6054206142507742
  0.6705367875195349  0.6632881917590794  0.5005443245216620
  0.7503686602667817  0.5007067077326486  0.6033703179833977
  0.8320709177040350  0.8336142761089391  0.3938650605993346
  0.4161214685922800  0.9190394700879757  0.4998334977469240
  0.3339010740967461  0.5844497079706784  0.3965927882722403
  0.2507519760856378  0.7493744893505409  0.6047828463137295
  0.1652477737773093  0.4158767872865386  0.5008764860232015
  0.9179930624367636  0.1689331404266549  0.5017976665707350
 -0.0004366880851864 -0.0004337519716844  0.6084136102173663
  0.0828824167904608  0.5819033606865329  0.3982912960861343
  0.9188572902792119  0.9134324894204582  0.5013605655356919
  0.0831561680175612  0.8349909247091063  0.3969886334317473
  0.0841268545210422  0.3338187585800431  0.4037313444288438
  0.8327427959679440  0.5834868489568968  0.4031017045986043
  0.9170817889085836  0.4163124281711612  0.5007382427509495
  0.6683789652003310  0.4155032331519408  0.5012331230385644
  0.0024901903862769  0.2491697465184592  0.5980752191099717
  0.7485717500243456 -0.0012257361618398  0.5990817703832965
  0.8339662110900098  0.0843752227684384  0.4036950835062041
  0.4999599187202257  0.7520905774211771  0.5984340156902692
  0.9185519775116776  0.6652432720303640  0.4987886954998512
  0.4994535903487953  0.4997131289096252  0.5985071662469685
  0.2499804419062975  0.2476788256206413  0.5967258603029392
  0.5830603813501999  0.5846255989328103  0.4030345889137492
  0.4989968554731170  0.2474439606822991  0.5988016030692405
 -0.0024703339182298  0.7491166414883647  0.5975058816365439
  0.4990730945137146  0.0007240773895823  0.5974473747006810
  0.4162984881904636  0.1662591085498256  0.4997987232467854
  0.3324820384246218  0.0855198498768820  0.4025649788410710
  0.1665002866162556  0.1675243971761107  0.4994525073631344
  0.2502052733625927  0.0015117105898202  0.5980337358074673
  0.3333161497454454  0.8344526161900049  0.4020940012689206
  0.3327544607692199  0.3333691203030630  0.4028566905417554
  0.1669195720391846  0.6653104192626972  0.5008566083824101
 -0.0008335265108347  0.4999354452407008  0.5970213275077767
  0.7507745489271801  0.7505338563050907  0.5970170149153269
 
  0.00000000E+00  0.00000000E+00  0.00000000E+00
  0.00000000E+00  0.00000000E+00  0.00000000E+00
  0.00000000E+00  0.00000000E+00  0.00000000E+00
  0.00000000E+00  0.00000000E+00  0.00000000E+00
  0.00000000E+00  0.00000000E+00  0.00000000E+00
  0.00000000E+00  0.00000000E+00  0.00000000E+00
  0.00000000E+00  0.00000000E+00  0.00000000E+00
  0.00000000E+00  0.00000000E+00  0.00000000E+00
  0.00000000E+00  0.00000000E+00  0.00000000E+00
  0.00000000E+00  0.00000000E+00  0.00000000E+00
  0.00000000E+00  0.00000000E+00  0.00000000E+00
  0.00000000E+00  0.00000000E+00  0.00000000E+00
  0.00000000E+00  0.00000000E+00  0.00000000E+00
  0.00000000E+00  0.00000000E+00  0.00000000E+00
  0.00000000E+00  0.00000000E+00  0.00000000E+00
  0.00000000E+00  0.00000000E+00  0.00000000E+00
  0.00000000E+00  0.00000000E+00  0.00000000E+00
  0.00000000E+00  0.00000000E+00  0.00000000E+00
  0.00000000E+00  0.00000000E+00  0.00000000E+00
  0.00000000E+00  0.00000000E+00  0.00000000E+00
  0.00000000E+00  0.00000000E+00  0.00000000E+00
  0.00000000E+00  0.00000000E+00  0.00000000E+00
  0.00000000E+00  0.00000000E+00  0.00000000E+00
  0.00000000E+00  0.00000000E+00  0.00000000E+00
  0.00000000E+00  0.00000000E+00  0.00000000E+00
  0.00000000E+00  0.00000000E+00  0.00000000E+00
  0.00000000E+00  0.00000000E+00  0.00000000E+00
  0.00000000E+00  0.00000000E+00  0.00000000E+00
  0.00000000E+00  0.00000000E+00  0.00000000E+00
  0.00000000E+00  0.00000000E+00  0.00000000E+00
  0.00000000E+00  0.00000000E+00  0.00000000E+00
  0.00000000E+00  0.00000000E+00  0.00000000E+00
  0.00000000E+00  0.00000000E+00  0.00000000E+00
  0.00000000E+00  0.00000000E+00  0.00000000E+00
  0.00000000E+00  0.00000000E+00  0.00000000E+00
  0.00000000E+00  0.00000000E+00  0.00000000E+00
  0.00000000E+00  0.00000000E+00  0.00000000E+00
  0.00000000E+00  0.00000000E+00  0.00000000E+00
  0.00000000E+00  0.00000000E+00  0.00000000E+00
  0.00000000E+00  0.00000000E+00  0.00000000E+00
  0.00000000E+00  0.00000000E+00  0.00000000E+00
  0.00000000E+00  0.00000000E+00  0.00000000E+00
  0.00000000E+00  0.00000000E+00  0.00000000E+00
  0.00000000E+00  0.00000000E+00  0.00000000E+00
  0.00000000E+00  0.00000000E+00  0.00000000E+00
  0.00000000E+00  0.00000000E+00  0.00000000E+00
  0.00000000E+00  0.00000000E+00  0.00000000E+00
  0.00000000E+00  0.00000000E+00  0.00000000E+00
