Au Pd                                   
   1.00000000000000     
    11.0025815152626798    0.0000000000000000    0.0000000000000000
     5.5012907576313399    9.5285150994265617    0.0000000000000000
     0.0000000000000000    0.0000000000000000   24.4917850942952882
   Au   Pd
    24    24
Selective dynamics
Direct
  0.0833333333333357  0.0833333333333357  0.4083001692812189   F   F   F
  0.9159915986011949  0.9166496353721749  0.5096089329440738   T   T   T
  0.0833333333333357  0.3333333333333357  0.4083001692812189   F   F   F
  0.9140590327411013  0.1698975929673950  0.5096943583996874   T   T   T
  0.3333333333333357  0.0833333333333357  0.4083001692812189   F   F   F
  0.1650730442759886  0.1669449795086767  0.5137193972906122   T   T   T
  0.7511119715473974  0.7482945333008421  0.6106838483510020   T   T   T
  0.2505449802212327  0.7504403441788565  0.6100600137628029   T   T   T
  0.1645127755506975  0.4185855082924286  0.5084155858807967   T   T   T
  0.2496106973142377  0.2510233148580570  0.6167438658264388   T   T   T
  0.3333333333333357  0.5833333333333357  0.4083001692812189   F   F   F
  0.1655473934054922  0.6683533539258760  0.5079023322541114   T   T   T
 -0.0030536291068065  0.2517756499627596  0.6152919180583942   T   T   T
  0.4189235749781645  0.1660553778088251  0.5107171699301647   T   T   T
  0.4203294958579359  0.4155848781604564  0.5081182988927061   T   T   T
  0.5005108538369979  0.2523669775845427  0.6142170662089622   T   T   T
  0.5833333333333357  0.5833333333333357  0.4083001692812189   F   F   F
  0.4167488361511883  0.9147700565732819  0.5082220761217989   T   T   T
  0.8333333333333357  0.0833333333333357  0.4083001692812189   F   F   F
  0.7506891477067684  0.0005482418021045  0.6111263026671365   T   T   T
  0.8333333333333357  0.5833333333333357  0.4083001692812189   F   F   F
  0.6675669442912718  0.6658193127894836  0.5091256830668126   T   T   T
  0.8333333333333357  0.8333333333333357  0.4083001692812189   F   F   F
  0.5833333333333357  0.0833333333333357  0.4083001692812189   F   F   F
  0.0003995651689492  0.5002430834315990  0.6058076392853345   T   T   T
  0.0833333333333357  0.8333333333333357  0.4083001692812189   F   F   F
  0.5833333333333357  0.3333333333333357  0.4083001692812189   F   F   F
  0.4988659144751210 -0.0003974799665969  0.6073470489177765   T   T   T
  0.2500301827644702  0.5010447701814831  0.6064401300584191   T   T   T
  0.6673262931099215  0.9162165794828743  0.5097632310803302   T   T   T
  0.1675498774999312  0.9157389955400064  0.5083318424502485   T   T   T
  0.3333333333333357  0.8333333333333357  0.4083001692812189   F   F   F
  0.9153713868198425  0.6666013852185644  0.5088292739583965   T   T   T
  0.0011485639757329  0.7487169344958478  0.6066266371373227   T   T   T
  0.4162078743611793  0.6672932450934446  0.5081238493732368   T   T   T
  0.6666503616078800  0.1672066606277641  0.5093853360659392   T   T   T
  0.2509755501291023 -0.0012928846356449  0.6080349444304117   T   T   T
  0.0833333333333357  0.5833333333333357  0.4083001692812189   F   F   F
  0.4995079661667110  0.7505701351639369  0.6057173048407847   T   T   T
  0.9154744778477018  0.4171120693248811  0.5088945204007308   T   T   T
  0.8333333333333357  0.3333333333333357  0.4083001692812189   F   F   F
  0.6668594146199608  0.4165314554729124  0.5068779124475088   T   T   T
  0.7490529916268329  0.2520552491341961  0.6054591488634027   T   T   T
  0.0006187712796025  0.0004867866698030  0.6064062949335872   T   T   T
  0.7482707266726792  0.4999307333166997  0.6050225734310744   T   T   T
  0.5833333333333357  0.8333333333333357  0.4083001692812189   F   F   F
  0.3333333333333357  0.3333333333333357  0.4083001692812189   F   F   F
  0.5020775987732583  0.5005942077636917  0.6045890809020701   T   T   T
 
  0.00000000E+00  0.00000000E+00  0.00000000E+00
  0.00000000E+00  0.00000000E+00  0.00000000E+00
  0.00000000E+00  0.00000000E+00  0.00000000E+00
  0.00000000E+00  0.00000000E+00  0.00000000E+00
  0.00000000E+00  0.00000000E+00  0.00000000E+00
  0.00000000E+00  0.00000000E+00  0.00000000E+00
  0.00000000E+00  0.00000000E+00  0.00000000E+00
  0.00000000E+00  0.00000000E+00  0.00000000E+00
  0.00000000E+00  0.00000000E+00  0.00000000E+00
  0.00000000E+00  0.00000000E+00  0.00000000E+00
  0.00000000E+00  0.00000000E+00  0.00000000E+00
  0.00000000E+00  0.00000000E+00  0.00000000E+00
  0.00000000E+00  0.00000000E+00  0.00000000E+00
  0.00000000E+00  0.00000000E+00  0.00000000E+00
  0.00000000E+00  0.00000000E+00  0.00000000E+00
  0.00000000E+00  0.00000000E+00  0.00000000E+00
  0.00000000E+00  0.00000000E+00  0.00000000E+00
  0.00000000E+00  0.00000000E+00  0.00000000E+00
  0.00000000E+00  0.00000000E+00  0.00000000E+00
  0.00000000E+00  0.00000000E+00  0.00000000E+00
  0.00000000E+00  0.00000000E+00  0.00000000E+00
  0.00000000E+00  0.00000000E+00  0.00000000E+00
  0.00000000E+00  0.00000000E+00  0.00000000E+00
  0.00000000E+00  0.00000000E+00  0.00000000E+00
  0.00000000E+00  0.00000000E+00  0.00000000E+00
  0.00000000E+00  0.00000000E+00  0.00000000E+00
  0.00000000E+00  0.00000000E+00  0.00000000E+00
  0.00000000E+00  0.00000000E+00  0.00000000E+00
  0.00000000E+00  0.00000000E+00  0.00000000E+00
  0.00000000E+00  0.00000000E+00  0.00000000E+00
  0.00000000E+00  0.00000000E+00  0.00000000E+00
  0.00000000E+00  0.00000000E+00  0.00000000E+00
  0.00000000E+00  0.00000000E+00  0.00000000E+00
  0.00000000E+00  0.00000000E+00  0.00000000E+00
  0.00000000E+00  0.00000000E+00  0.00000000E+00
  0.00000000E+00  0.00000000E+00  0.00000000E+00
  0.00000000E+00  0.00000000E+00  0.00000000E+00
  0.00000000E+00  0.00000000E+00  0.00000000E+00
  0.00000000E+00  0.00000000E+00  0.00000000E+00
  0.00000000E+00  0.00000000E+00  0.00000000E+00
  0.00000000E+00  0.00000000E+00  0.00000000E+00
  0.00000000E+00  0.00000000E+00  0.00000000E+00
  0.00000000E+00  0.00000000E+00  0.00000000E+00
  0.00000000E+00  0.00000000E+00  0.00000000E+00
  0.00000000E+00  0.00000000E+00  0.00000000E+00
  0.00000000E+00  0.00000000E+00  0.00000000E+00
  0.00000000E+00  0.00000000E+00  0.00000000E+00
  0.00000000E+00  0.00000000E+00  0.00000000E+00
