Au Pd                                   
   1.00000000000000     
    11.0025815152626798    0.0000000000000000    0.0000000000000000
     5.5012907576313399    9.5285150994265617    0.0000000000000000
     0.0000000000000000    0.0000000000000000   24.4917850942952882
   Au   Pd
    24    24
Selective dynamics
Direct
  0.2494709969645341  0.7501118122698133  0.6127788521259396   T   T   T
  0.9153991362952081  0.9176052957527706  0.5061853608608352   T   T   T
 -0.0020881207655852  0.5019956267549125  0.6098106921883513   T   T   T
 -0.0010803693913113  0.2505928697439024  0.6119964177086146   T   T   T
  0.0833333333333357  0.5833333333333357  0.4083001692812189   F   F   F
  0.8333333333333357  0.5833333333333357  0.4083001692812189   F   F   F
  0.0833333333333357  0.3333333333333357  0.4083001692812189   F   F   F
  0.0000743683431719 -0.0002750270207709  0.6140768454734797   T   T   T
  0.9140384062781497  0.1697141904626484  0.5056077874769234   T   T   T
  0.6667581259659157  0.6667411778295941  0.5108645661924137   T   T   T
  0.4165338897662299  0.6660720627232016  0.5091837180863440   T   T   T
  0.1691201132281200  0.1666688600132442  0.5070954509902451   T   T   T
  0.9178740749089035  0.6666977313497927  0.5090757660180419   T   T   T
  0.5833333333333357  0.5833333333333357  0.4083001692812189   F   F   F
  0.2513591244449872  0.2491456051869771  0.6092492570440282   T   T   T
  0.3333333333333357  0.5833333333333357  0.4083001692812189   F   F   F
  0.7492222119457710 -0.0001683894011099  0.6092292336409775   T   T   T
  0.2518205923301839  0.4999708842408008  0.6073646046222717   T   T   T
  0.1678046443072961  0.9156708277792281  0.5061711687299020   T   T   T
  0.5833333333333357  0.0833333333333357  0.4083001692812189   F   F   F
  0.5008965661417765  0.7489089995485697  0.6137054463646960   T   T   T
  0.4996872216335730 -0.0003354387967381  0.6074641643431289   T   T   T
  0.5833333333333357  0.8333333333333357  0.4083001692812189   F   F   F
  0.7464439743473913  0.2530439734395946  0.6089989499138676   T   T   T
  0.3333333333333357  0.8333333333333357  0.4083001692812189   F   F   F
  0.1678836880816150  0.6653442848610019  0.5082989442721221   T   T   T
  0.1707121275334286  0.4151702796970193  0.5080758111625722   T   T   T
  0.3333333333333357  0.3333333333333357  0.4083001692812189   F   F   F
  0.9168456700202573  0.4160377775928555  0.5088873945974270   T   T   T
  0.3333333333333357  0.0833333333333357  0.4083001692812189   F   F   F
 -0.0004131627871445  0.7509486744929511  0.6059604906016128   T   T   T
  0.0833333333333357  0.8333333333333357  0.4083001692812189   F   F   F
  0.6647549089118042  0.9202729632572522  0.5080214976435979   T   T   T
  0.2497713161388540 -0.0009511546626081  0.6051073632581433   T   T   T
  0.4173196608821184  0.1663213939900356  0.5061304198970895   T   T   T
  0.5003742810735594  0.4993998266886188  0.6038961505298691   T   T   T
  0.4165986719211864  0.4145366261518784  0.5055323706620035   T   T   T
  0.0833333333333357  0.0833333333333357  0.4083001692812189   F   F   F
  0.6657728317315552  0.4147380927847645  0.5069888591377119   T   T   T
  0.4183388515226656  0.9170968615638894  0.5074660050710675   T   T   T
  0.8333333333333357  0.3333333333333357  0.4083001692812189   F   F   F
  0.7491532682258351  0.5000040661745146  0.6054418730928256   T   T   T
  0.8333333333333357  0.8333333333333357  0.4083001692812189   F   F   F
  0.8333333333333357  0.0833333333333357  0.4083001692812189   F   F   F
  0.6642415941006534  0.1689823677945800  0.5059053474286941   T   T   T
  0.5000919294882564  0.2506200787753380  0.6010962963065546   T   T   T
  0.5833333333333357  0.3333333333333357  0.4083001692812189   F   F   F
  0.7504937179321237  0.7500494110346934  0.6064402893837922   T   T   T
 
  0.00000000E+00  0.00000000E+00  0.00000000E+00
  0.00000000E+00  0.00000000E+00  0.00000000E+00
  0.00000000E+00  0.00000000E+00  0.00000000E+00
  0.00000000E+00  0.00000000E+00  0.00000000E+00
  0.00000000E+00  0.00000000E+00  0.00000000E+00
  0.00000000E+00  0.00000000E+00  0.00000000E+00
  0.00000000E+00  0.00000000E+00  0.00000000E+00
  0.00000000E+00  0.00000000E+00  0.00000000E+00
  0.00000000E+00  0.00000000E+00  0.00000000E+00
  0.00000000E+00  0.00000000E+00  0.00000000E+00
  0.00000000E+00  0.00000000E+00  0.00000000E+00
  0.00000000E+00  0.00000000E+00  0.00000000E+00
  0.00000000E+00  0.00000000E+00  0.00000000E+00
  0.00000000E+00  0.00000000E+00  0.00000000E+00
  0.00000000E+00  0.00000000E+00  0.00000000E+00
  0.00000000E+00  0.00000000E+00  0.00000000E+00
  0.00000000E+00  0.00000000E+00  0.00000000E+00
  0.00000000E+00  0.00000000E+00  0.00000000E+00
  0.00000000E+00  0.00000000E+00  0.00000000E+00
  0.00000000E+00  0.00000000E+00  0.00000000E+00
  0.00000000E+00  0.00000000E+00  0.00000000E+00
  0.00000000E+00  0.00000000E+00  0.00000000E+00
  0.00000000E+00  0.00000000E+00  0.00000000E+00
  0.00000000E+00  0.00000000E+00  0.00000000E+00
  0.00000000E+00  0.00000000E+00  0.00000000E+00
  0.00000000E+00  0.00000000E+00  0.00000000E+00
  0.00000000E+00  0.00000000E+00  0.00000000E+00
  0.00000000E+00  0.00000000E+00  0.00000000E+00
  0.00000000E+00  0.00000000E+00  0.00000000E+00
  0.00000000E+00  0.00000000E+00  0.00000000E+00
  0.00000000E+00  0.00000000E+00  0.00000000E+00
  0.00000000E+00  0.00000000E+00  0.00000000E+00
  0.00000000E+00  0.00000000E+00  0.00000000E+00
  0.00000000E+00  0.00000000E+00  0.00000000E+00
  0.00000000E+00  0.00000000E+00  0.00000000E+00
  0.00000000E+00  0.00000000E+00  0.00000000E+00
  0.00000000E+00  0.00000000E+00  0.00000000E+00
  0.00000000E+00  0.00000000E+00  0.00000000E+00
  0.00000000E+00  0.00000000E+00  0.00000000E+00
  0.00000000E+00  0.00000000E+00  0.00000000E+00
  0.00000000E+00  0.00000000E+00  0.00000000E+00
  0.00000000E+00  0.00000000E+00  0.00000000E+00
  0.00000000E+00  0.00000000E+00  0.00000000E+00
  0.00000000E+00  0.00000000E+00  0.00000000E+00
  0.00000000E+00  0.00000000E+00  0.00000000E+00
  0.00000000E+00  0.00000000E+00  0.00000000E+00
  0.00000000E+00  0.00000000E+00  0.00000000E+00
  0.00000000E+00  0.00000000E+00  0.00000000E+00
