Au Pd                                   
   1.00000000000000     
    11.0025815152626798    0.0000000000000000    0.0000000000000000
     5.5012907576313399    9.5285150994265617    0.0000000000000000
     0.0000000000000000    0.0000000000000000   24.4917850942952882
   Au   Pd
    24    24
Direct
  0.2490935701038856  0.7481386984237548  0.6062486440886184
  0.8376778759268511  0.8320984227765246  0.3920872791639688
  0.8324290780730397  0.5830007344015486  0.3952455883742434
  0.7484149239434961  0.2509271499407373  0.6034579540533029
  0.8373195512244024  0.0838437027004857  0.3951327628044546
  0.5819518624630149  0.8318068448291921  0.3969199332327807
  0.4182138013295310  0.6662122252332386  0.5022545022055528
  0.4975360192525732  0.2514092788957944  0.6005403760851586
  0.5843920299230103  0.3363817973934198  0.4001141646746748
  0.4169531651742717  0.1672963688460961  0.4987670299678921
  0.5842828820946674  0.0843157389923644  0.3933818361130798
  0.6657339735375107  0.9167342729506039  0.4988351236838138
  0.1691367535647743  0.6642803490134030  0.5007520981225326
  0.3316682028533966  0.3377003353800987  0.3962440659348450
  0.7493117859301844  0.7489792593030218  0.6021723988081679
  0.1681544999081248  0.1645534590819393  0.5011288612006487
  0.9174834595547406  0.6648121520927692  0.4993085204701085
  0.9150340308381915  0.4171799566825934  0.5015421800012841
  0.9176390591709573  0.9171315365988559  0.4998558608812977
  0.2513880273662598 -0.0009053324536327  0.6047673133746218
  0.0823132548074100  0.3336507712873142  0.3955197488947368
 -0.0005273800854541  0.2520666014880723  0.6088998065038200
  0.3321178079814541  0.0813100181002665  0.3940808835580152
  0.9157526264689790  0.1663275609986219  0.5022286202900628
  0.6647065217312069  0.4161394947536564  0.5018584037317309
  0.6656005727341652  0.6664472618478809  0.5000655621476331
  0.7495560965645290 -0.0002021325290826  0.5962183633071330
  0.6663326757008251  0.1678462321562197  0.4994501542253942
  0.7487035425761213  0.5010894875722068  0.5981098488791821
  0.5005052787666719  0.7491141499544652  0.5979877455341768
  0.4172531929316567  0.9154324301298793  0.4999977223017472
 -0.0016810342369280 -0.0006520570755392  0.6002436376364795
  0.8337686206224061  0.3340851211903458  0.4046344949936210
  0.0845453516550569  0.5847673905760743  0.4017308838916115
  0.5820818228534091  0.5843275148641445  0.4052330288598041
  0.4184087284265848  0.4148843518124953  0.4996283380943417
  0.0012450357689698  0.4998241032488822  0.5975344913482175
  0.4988943317851085 -0.0006794601858163  0.5965459532986433
  0.0855149130949807  0.8337364311227211  0.4037388681506018
 -0.0011290916005882  0.7504121075368545  0.5981834851673452
  0.1687156911881336  0.9152776647357903  0.5040333043308324
  0.3318840315355640  0.8332292218871159  0.4058522439758830
  0.2475507909880599  0.4997000353443906  0.5966577294774353
  0.3327986097612640  0.5862413821719729  0.4039635569281228
  0.2484451115825537  0.2516617647779529  0.5967048206835879
  0.1684257054916498  0.4150791682058825  0.4981515819401476
  0.4994245273312913  0.5013009880554539  0.5983911670817542
  0.0849781113420357  0.0816854448889684  0.4055990615268941
 
  0.00000000E+00  0.00000000E+00  0.00000000E+00
  0.00000000E+00  0.00000000E+00  0.00000000E+00
  0.00000000E+00  0.00000000E+00  0.00000000E+00
  0.00000000E+00  0.00000000E+00  0.00000000E+00
  0.00000000E+00  0.00000000E+00  0.00000000E+00
  0.00000000E+00  0.00000000E+00  0.00000000E+00
  0.00000000E+00  0.00000000E+00  0.00000000E+00
  0.00000000E+00  0.00000000E+00  0.00000000E+00
  0.00000000E+00  0.00000000E+00  0.00000000E+00
  0.00000000E+00  0.00000000E+00  0.00000000E+00
  0.00000000E+00  0.00000000E+00  0.00000000E+00
  0.00000000E+00  0.00000000E+00  0.00000000E+00
  0.00000000E+00  0.00000000E+00  0.00000000E+00
  0.00000000E+00  0.00000000E+00  0.00000000E+00
  0.00000000E+00  0.00000000E+00  0.00000000E+00
  0.00000000E+00  0.00000000E+00  0.00000000E+00
  0.00000000E+00  0.00000000E+00  0.00000000E+00
  0.00000000E+00  0.00000000E+00  0.00000000E+00
  0.00000000E+00  0.00000000E+00  0.00000000E+00
  0.00000000E+00  0.00000000E+00  0.00000000E+00
  0.00000000E+00  0.00000000E+00  0.00000000E+00
  0.00000000E+00  0.00000000E+00  0.00000000E+00
  0.00000000E+00  0.00000000E+00  0.00000000E+00
  0.00000000E+00  0.00000000E+00  0.00000000E+00
  0.00000000E+00  0.00000000E+00  0.00000000E+00
  0.00000000E+00  0.00000000E+00  0.00000000E+00
  0.00000000E+00  0.00000000E+00  0.00000000E+00
  0.00000000E+00  0.00000000E+00  0.00000000E+00
  0.00000000E+00  0.00000000E+00  0.00000000E+00
  0.00000000E+00  0.00000000E+00  0.00000000E+00
  0.00000000E+00  0.00000000E+00  0.00000000E+00
  0.00000000E+00  0.00000000E+00  0.00000000E+00
  0.00000000E+00  0.00000000E+00  0.00000000E+00
  0.00000000E+00  0.00000000E+00  0.00000000E+00
  0.00000000E+00  0.00000000E+00  0.00000000E+00
  0.00000000E+00  0.00000000E+00  0.00000000E+00
  0.00000000E+00  0.00000000E+00  0.00000000E+00
  0.00000000E+00  0.00000000E+00  0.00000000E+00
  0.00000000E+00  0.00000000E+00  0.00000000E+00
  0.00000000E+00  0.00000000E+00  0.00000000E+00
  0.00000000E+00  0.00000000E+00  0.00000000E+00
  0.00000000E+00  0.00000000E+00  0.00000000E+00
  0.00000000E+00  0.00000000E+00  0.00000000E+00
  0.00000000E+00  0.00000000E+00  0.00000000E+00
  0.00000000E+00  0.00000000E+00  0.00000000E+00
  0.00000000E+00  0.00000000E+00  0.00000000E+00
  0.00000000E+00  0.00000000E+00  0.00000000E+00
  0.00000000E+00  0.00000000E+00  0.00000000E+00
