Au  O Pd                                
   1.00000000000000     
    11.0025815152626798    0.0000000000000000    0.0000000000000000
     5.5012907576313399    9.5285150994265617    0.0000000000000000
     0.0000000000000000    0.0000000000000000   26.1917850942952910
   Au   O    Pd
    24     8    24
Selective dynamics
Direct
  0.0833333333333357  0.0833333333333357  0.3817991009012260   F   F   F
  0.3333333333333357  0.8333333333333357  0.3817991009012260   F   F   F
  0.0833333333333357  0.8333333333333357  0.3817991009012260   F   F   F
  0.9198856879205993  0.1621631009001801  0.4813757728247065   T   T   T
  0.8333333333333357  0.8333333333333357  0.3817991009012260   F   F   F
  0.0833333333333357  0.3333333333333357  0.3817991009012260   F   F   F
  0.9172613267582974  0.4157969322638587  0.4856216286934746   T   T   T
  0.6686325660721428  0.6678762230764554  0.4820612879231329   T   T   T
  0.8333333333333357  0.5833333333333357  0.3817991009012260   F   F   F
  0.0833333333333357  0.5833333333333357  0.3817991009012260   F   F   F
  0.6664728178144621  0.4144360298028339  0.4791240368228414   T   T   T
  0.8333333333333357  0.0833333333333357  0.3817991009012260   F   F   F
  0.8333333333333357  0.3333333333333357  0.3817991009012260   F   F   F
  0.4160659459367585  0.9165224308410976  0.4794809504680844   T   T   T
  0.5833333333333357  0.8333333333333357  0.3817991009012260   F   F   F
  0.3333333333333357  0.0833333333333357  0.3817991009012260   F   F   F
  0.5833333333333357  0.5833333333333357  0.3817991009012260   F   F   F
  0.5833333333333357  0.3333333333333357  0.3817991009012260   F   F   F
  0.3333333333333357  0.3333333333333357  0.3817991009012260   F   F   F
  0.1652611485953659  0.4161327696249650  0.4820964162889744   T   T   T
  0.4180688949017075  0.1678062016430126  0.4811217140470426   T   T   T
  0.3333333333333357  0.5833333333333357  0.3817991009012260   F   F   F
  0.1653900395081940  0.6676833853162416  0.4771288189340326   T   T   T
  0.5833333333333357  0.0833333333333357  0.3817991009012260   F   F   F
  0.1064672480267183  0.0643208179272994  0.6164489433165395   T   T   T
  0.0834636767808877  0.3326924956260122  0.6189013574657346   T   T   T
  0.3304093456609842  0.3543429834239027  0.6162086846609311   T   T   T
  0.8552239455563095  0.8195607566207266  0.6156024220209309   T   T   T
  0.8307994694830937  0.5807589751402340  0.6188372085466348   T   T   T
  0.5703370882744296  0.0791091729016746  0.6152138016892266   T   T   T
  0.5576020852113889  0.5887094816801040  0.6155056222737918   T   T   T
  0.8323157582262343  0.0976699292155217  0.6155044415766112   T   T   T
  0.2586054302312047 -0.0045966957745269  0.5672920291316478   T   T   T
  0.4176781624488525  0.4160484242168357  0.4787561276806300   T   T   T
  0.5026746143474384  0.2559153649700156  0.5736365489756691   T   T   T
  0.2575758945266285  0.2420763261778138  0.5785052552104208   T   T   T
  0.4963210593738056 -0.0062163746584883  0.5684025881492396   T   T   T
  0.2443833065143990  0.5140066765369748  0.5687695984411721   T   T   T
  0.7427610073287616  0.7532316822416564  0.5768072090171618   T   T   T
  0.2509101729999013  0.7530316323485303  0.5623481531131873   T   T   T
  0.1670353878944808  0.1664838828952260  0.4791496662278977   T   T   T
  0.4945065196091299  0.7542999704237403  0.5704755875634976   T   T   T
  0.0106692749832303  0.7464982091278511  0.5674039670342943   T   T   T
  0.9147027846845469  0.9175805995817179  0.4792516330266401   T   T   T
  0.6669199256256567  0.1642465579346245  0.4797145697761712   T   T   T
  0.7507973226294554 -0.0004643762075059  0.5746241948637082   T   T   T
  0.0046694148524268  0.5058479442073650  0.5763792912819644   T   T   T
  0.9156396160671884  0.6679081986144904  0.4797712782594767   T   T   T
  0.7441859442086354  0.2580903467771111  0.5696113618075419   T   T   T
 -0.0060470979170064  0.2492620852778504  0.5768193865723212   T   T   T
  0.7452348255253919  0.4940247508604332  0.5762343971461547   T   T   T
  0.0076849573361406 -0.0094820181891646  0.5739961429194290   T   T   T
  0.6709832339538757  0.9161674859770399  0.4802845357972689   T   T   T
  0.1654532047470123  0.9174740258414880  0.4759735517970845   T   T   T
  0.4167015839740856  0.6666928481416435  0.4745450895159847   T   T   T
  0.4923680468540011  0.5022463115927921  0.5651241549990828   T   T   T
 
  0.00000000E+00  0.00000000E+00  0.00000000E+00
  0.00000000E+00  0.00000000E+00  0.00000000E+00
  0.00000000E+00  0.00000000E+00  0.00000000E+00
  0.00000000E+00  0.00000000E+00  0.00000000E+00
  0.00000000E+00  0.00000000E+00  0.00000000E+00
  0.00000000E+00  0.00000000E+00  0.00000000E+00
  0.00000000E+00  0.00000000E+00  0.00000000E+00
  0.00000000E+00  0.00000000E+00  0.00000000E+00
  0.00000000E+00  0.00000000E+00  0.00000000E+00
  0.00000000E+00  0.00000000E+00  0.00000000E+00
  0.00000000E+00  0.00000000E+00  0.00000000E+00
  0.00000000E+00  0.00000000E+00  0.00000000E+00
  0.00000000E+00  0.00000000E+00  0.00000000E+00
  0.00000000E+00  0.00000000E+00  0.00000000E+00
  0.00000000E+00  0.00000000E+00  0.00000000E+00
  0.00000000E+00  0.00000000E+00  0.00000000E+00
  0.00000000E+00  0.00000000E+00  0.00000000E+00
  0.00000000E+00  0.00000000E+00  0.00000000E+00
  0.00000000E+00  0.00000000E+00  0.00000000E+00
  0.00000000E+00  0.00000000E+00  0.00000000E+00
  0.00000000E+00  0.00000000E+00  0.00000000E+00
  0.00000000E+00  0.00000000E+00  0.00000000E+00
  0.00000000E+00  0.00000000E+00  0.00000000E+00
  0.00000000E+00  0.00000000E+00  0.00000000E+00
  0.00000000E+00  0.00000000E+00  0.00000000E+00
  0.00000000E+00  0.00000000E+00  0.00000000E+00
  0.00000000E+00  0.00000000E+00  0.00000000E+00
  0.00000000E+00  0.00000000E+00  0.00000000E+00
  0.00000000E+00  0.00000000E+00  0.00000000E+00
  0.00000000E+00  0.00000000E+00  0.00000000E+00
  0.00000000E+00  0.00000000E+00  0.00000000E+00
  0.00000000E+00  0.00000000E+00  0.00000000E+00
  0.00000000E+00  0.00000000E+00  0.00000000E+00
  0.00000000E+00  0.00000000E+00  0.00000000E+00
  0.00000000E+00  0.00000000E+00  0.00000000E+00
  0.00000000E+00  0.00000000E+00  0.00000000E+00
  0.00000000E+00  0.00000000E+00  0.00000000E+00
  0.00000000E+00  0.00000000E+00  0.00000000E+00
  0.00000000E+00  0.00000000E+00  0.00000000E+00
  0.00000000E+00  0.00000000E+00  0.00000000E+00
  0.00000000E+00  0.00000000E+00  0.00000000E+00
  0.00000000E+00  0.00000000E+00  0.00000000E+00
  0.00000000E+00  0.00000000E+00  0.00000000E+00
  0.00000000E+00  0.00000000E+00  0.00000000E+00
  0.00000000E+00  0.00000000E+00  0.00000000E+00
  0.00000000E+00  0.00000000E+00  0.00000000E+00
  0.00000000E+00  0.00000000E+00  0.00000000E+00
  0.00000000E+00  0.00000000E+00  0.00000000E+00
  0.00000000E+00  0.00000000E+00  0.00000000E+00
  0.00000000E+00  0.00000000E+00  0.00000000E+00
  0.00000000E+00  0.00000000E+00  0.00000000E+00
  0.00000000E+00  0.00000000E+00  0.00000000E+00
  0.00000000E+00  0.00000000E+00  0.00000000E+00
  0.00000000E+00  0.00000000E+00  0.00000000E+00
  0.00000000E+00  0.00000000E+00  0.00000000E+00
  0.00000000E+00  0.00000000E+00  0.00000000E+00
